LAMMPS data file via 3DSCalculator tools/make_lammps_examples.py (bcc Fe, 2.2 muB spins with thermal disorder), units = metal

2000 atoms
1 atom types

0.0 28.665000 xlo xhi
0.0 28.665000 ylo yhi
0.0 28.665000 zlo zhi

Masses

1 55.845 # Fe

Atoms # spin

1 1 -0.084541 0.076774 -0.019963 -0.46793924 0.52418005 0.71152522 2.2 0 0 0
2 1 1.399194 1.467519 1.357293 -0.55668389 -0.31993826 0.76664369 2.2 0 0 0
3 1 -0.068681 0.036207 2.948911 0.34864453 -0.17546024 0.92068491 2.2 0 0 0
4 1 1.429914 1.425603 4.277386 -0.68476693 0.30147085 0.66348291 2.2 0 0 0
5 1 0.038097 0.091928 5.693817 -0.99818650 -0.01693097 0.05776725 2.2 0 0 0
6 1 1.435044 1.305239 7.129912 -0.17462141 -0.33128489 0.92723119 2.2 0 0 0
7 1 -0.002527 -0.047078 8.503149 0.45161438 0.06118612 0.89011275 2.2 0 0 0
8 1 1.471657 1.429408 10.117720 0.01161359 0.30030467 0.95377263 2.2 0 0 0
9 1 -0.114528 0.049328 11.280863 0.73388633 -0.01168883 0.67917172 2.2 0 0 0
10 1 1.446351 1.477724 12.903229 -0.73757657 -0.30792125 0.60097031 2.2 0 0 0
11 1 0.014809 0.032293 14.355311 -0.40547559 0.65078236 0.64192824 2.2 0 0 0
12 1 1.418235 1.454485 15.919609 0.06789508 0.10954571 0.99166022 2.2 0 0 0
13 1 -0.041752 0.122375 17.139742 0.00171388 -0.28904986 0.95731251 2.2 0 0 0
14 1 1.426977 1.441034 18.643130 -0.07290893 -0.03043716 0.99687405 2.2 0 0 0
15 1 -0.034968 0.017077 19.955544 0.16446908 -0.12194604 0.97881514 2.2 0 0 0
16 1 1.310573 1.345177 21.505370 0.77903253 0.30135043 0.54981473 2.2 0 0 0
17 1 0.006536 -0.054671 22.965321 -0.23849875 0.03034096 0.97066873 2.2 0 0 0
18 1 1.419260 1.427678 24.467564 -0.31708630 0.61116744 0.72521076 2.2 0 0 0
19 1 0.017907 0.019874 25.894315 0.84529817 0.15240745 0.51209664 2.2 0 0 0
20 1 1.358026 1.435517 27.294077 -0.25354237 -0.08931083 0.96319253 2.2 0 0 0
21 1 0.004301 2.841085 -0.045893 -0.13346655 0.54543986 0.82745516 2.2 0 0 0
22 1 1.498580 4.300474 1.549855 -0.29369462 0.58134139 0.75880542 2.2 0 0 0
23 1 0.013134 2.862248 2.809855 -0.60294458 -0.39159423 0.69506244 2.2 0 0 0
24 1 1.467673 4.323002 4.346592 0.37647861 -0.65747052 0.65268398 2.2 0 0 0
25 1 -0.039361 2.950036 5.711932 0.13114503 0.32292162 0.93729537 2.2 0 0 0
26 1 1.398852 4.325009 7.172304 0.15517029 0.04874757 0.98668427 2.2 0 0 0
27 1 0.017007 2.845365 8.582076 0.24281481 -0.79896361 0.55018008 2.2 0 0 0
28 1 1.399588 4.251427 10.037914 0.62357878 0.46696346 0.62697260 2.2 0 0 0
29 1 -0.009937 2.816767 11.506550 -0.46193201 0.03220723 0.88633036 2.2 0 0 0
30 1 1.388085 4.430903 12.928874 0.50186852 0.24908002 0.82830377 2.2 0 0 0
31 1 -0.025360 3.031735 14.429703 -0.30679653 0.18226784 0.93415969 2.2 0 0 0
32 1 1.485112 4.303068 15.621605 0.08804189 -0.01442196 0.99601237 2.2 0 0 0
33 1 0.058171 2.813095 17.113806 -0.52431269 -0.07443524 0.84826623 2.2 0 0 0
34 1 1.389033 4.250070 18.644119 -0.35010438 0.65424067 0.67037010 2.2 0 0 0
35 1 0.072270 2.849792 20.048393 -0.06318470 0.10363795 0.99260610 2.2 0 0 0
36 1 1.318266 4.295590 21.470043 -0.24598538 -0.61372947 0.75021819 2.2 0 0 0
37 1 -0.005590 2.977678 22.926281 0.16382262 0.01462005 0.98638147 2.2 0 0 0
38 1 1.529256 4.288761 24.370410 -0.06635880 0.04891380 0.99659618 2.2 0 0 0
39 1 -0.019724 2.799099 25.684514 -0.13720372 0.59483657 0.79205088 2.2 0 0 0
40 1 1.364318 4.333131 27.132974 0.19425256 0.02496398 0.98063385 2.2 0 0 0
41 1 0.015292 5.826510 -0.030068 0.56708172 0.00599703 0.82363970 2.2 0 0 0
42 1 1.492936 7.028593 1.436426 -0.17213795 0.62316149 0.76291434 2.2 0 0 0
43 1 -0.137463 5.769104 2.896309 0.11207241 0.24091989 0.96405258 2.2 0 0 0
44 1 1.388304 7.133393 4.382861 -0.26322817 0.03595084 0.96406352 2.2 0 0 0
45 1 -0.064913 5.750963 5.798357 -0.38830243 -0.13486287 0.91161024 2.2 0 0 0
46 1 1.458879 7.221388 7.173874 0.51580871 0.00355127 0.85669643 2.2 0 0 0
47 1 -0.034251 5.792216 8.591790 0.36387719 0.06220331 0.92936760 2.2 0 0 0
48 1 1.448861 7.287297 9.991872 -0.59646090 -0.40692022 0.69184560 2.2 0 0 0
49 1 0.063475 5.662061 11.538234 0.35759925 -0.81682749 0.45267608 2.2 0 0 0
50 1 1.522081 7.119452 12.857175 -0.03574962 -0.15335398 0.98752444 2.2 0 0 0
51 1 0.018242 5.775223 14.344275 -0.07884810 -0.04199775 0.99600159 2.2 0 0 0
52 1 1.334850 7.170197 15.764011 -0.06386878 -0.43847949 0.89646892 2.2 0 0 0
53 1 0.140253 5.778353 17.133575 -0.49585544 0.01649075 0.86824849 2.2 0 0 0
54 1 1.374740 7.072820 18.527684 -0.34069084 0.42169737 0.84029821 2.2 0 0 0
55 1 0.046348 5.816331 20.132825 0.44931842 0.26587689 0.85289064 2.2 0 0 0
56 1 1.311423 7.167250 21.545476 0.11849530 -0.32437462 0.93847747 2.2 0 0 0
57 1 0.079712 5.749849 22.913729 -0.06489124 0.05809869 0.99619961 2.2 0 0 0
58 1 1.360629 7.134000 24.386458 0.00558950 -0.55547580 0.83151392 2.2 0 0 0
59 1 -0.149427 5.641008 25.882231 -0.11365358 -0.29277037 0.94940422 2.2 0 0 0
60 1 1.419351 7.208774 27.101510 0.18989992 0.14781689 0.97061227 2.2 0 0 0
61 1 0.017539 8.442020 0.165361 -0.08655744 -0.13717246 0.98675809 2.2 0 0 0
62 1 1.528959 10.077261 1.434412 -0.26881588 -0.14689688 0.95192401 2.2 0 0 0
63 1 -0.058456 8.520881 2.879825 -0.07117589 -0.00614615 0.99744484 2.2 0 0 0
64 1 1.538186 10.163427 4.210878 0.10684892 0.74904647 0.65384455 2.2 0 0 0
65 1 -0.192733 8.590362 5.651720 0.00896578 0.06740522 0.99768540 2.2 0 0 0
66 1 1.373829 10.060704 7.219696 0.36814106 0.11021439 0.92321446 2.2 0 0 0
67 1 -0.000116 8.586229 8.535068 0.15329913 -0.52556240 0.83682946 2.2 0 0 0
68 1 1.438211 9.972009 10.010943 0.82472844 0.16865875 0.53979368 2.2 0 0 0
69 1 -0.068702 8.633846 11.368129 0.44379782 0.37160762 0.81544545 2.2 0 0 0
70 1 1.302733 10.110412 12.859976 -0.59217185 0.48523566 0.64333417 2.2 0 0 0
71 1 -0.016148 8.694440 14.256737 -0.48611157 0.06103817 0.87176252 2.2 0 0 0
72 1 1.427747 9.995177 15.664322 -0.20143012 -0.17560177 0.96363371 2.2 0 0 0
73 1 0.019166 8.640101 17.189122 -0.10944935 -0.38069808 0.91819922 2.2 0 0 0
74 1 1.556236 10.040072 18.503468 -0.13427647 0.33042908 0.93423041 2.2 0 0 0
75 1 0.037229 8.580194 20.060535 0.48843792 -0.42081571 0.76442301 2.2 0 0 0
76 1 1.490606 9.931020 21.526517 -0.23002194 0.53926180 0.81011519 2.2 0 0 0
77 1 -0.035449 8.587673 22.979932 -0.04462522 -0.59797541 0.80027120 2.2 0 0 0
78 1 1.434703 10.018077 24.181725 0.26402302 0.43517796 0.86076245 2.2 0 0 0
79 1 -0.009726 8.629416 25.836489 0.26638619 -0.11182625 0.95735745 2.2 0 0 0
80 1 1.322187 9.954655 27.227031 -0.35091542 -0.62214225 0.69985526 2.2 0 0 0
81 1 0.091724 11.454754 0.027253 0.46608259 0.16281654 0.86963083 2.2 0 0 0
82 1 1.428188 12.919760 1.352543 -0.18976310 0.37700340 0.90656406 2.2 0 0 0
83 1 0.055969 11.411119 3.001482 0.17247338 -0.67556465 0.71684402 2.2 0 0 0
84 1 1.507135 12.970195 4.340390 -0.72065925 -0.05656448 0.69097808 2.2 0 0 0
85 1 -0.082593 11.469197 5.714091 -0.27275578 -0.19215847 0.94269794 2.2 0 0 0
86 1 1.464145 12.896602 7.165551 -0.22629434 -0.23491041 0.94530840 2.2 0 0 0
87 1 0.003916 11.534450 8.639741 -0.17439352 0.44316800 0.87931168 2.2 0 0 0
88 1 1.486326 12.910345 10.066758 0.29867174 -0.95263639 0.05726337 2.2 0 0 0
89 1 0.025856 11.444589 11.464235 0.17873699 0.02176773 0.98365607 2.2 0 0 0
90 1 1.268195 12.798102 12.887959 -0.20114044 0.57605703 0.79227572 2.2 0 0 0
91 1 0.163156 11.323779 14.343501 0.14169465 0.63970905 0.75544355 2.2 0 0 0
92 1 1.501300 12.929371 15.884386 -0.16797340 0.19368824 0.96657633 2.2 0 0 0
93 1 0.035497 11.511343 17.181947 -0.39688051 -0.63512168 0.66265097 2.2 0 0 0
94 1 1.405993 12.843506 18.543989 -0.40584812 0.32149556 0.85552785 2.2 0 0 0
95 1 -0.032936 11.476237 19.998537 -0.20558223 -0.16076058 0.96534552 2.2 0 0 0
96 1 1.361931 12.792151 21.499314 0.14758577 -0.28570858 0.94688386 2.2 0 0 0
97 1 0.065808 11.465469 22.977940 0.09544835 -0.49074497 0.86605946 2.2 0 0 0
98 1 1.454871 12.923977 24.341544 -0.42638890 0.46853211 0.77373779 2.2 0 0 0
99 1 0.043455 11.490203 25.753757 -0.23958638 0.15728452 0.95805008 2.2 0 0 0
100 1 1.341192 12.960150 27.218293 -0.99890327 -0.00172009 -0.04678984 2.2 0 0 0
101 1 0.064796 14.378377 -0.001871 -0.04556214 0.09144528 0.99476724 2.2 0 0 0
102 1 1.427973 15.660305 1.406907 0.69253801 -0.20830254 0.69065270 2.2 0 0 0
103 1 -0.086328 14.378692 2.890116 -0.59054046 -0.39320035 0.70473785 2.2 0 0 0
104 1 1.519800 15.597431 4.305943 0.41097724 0.67032569 0.61786825 2.2 0 0 0
105 1 -0.044435 14.292746 5.690841 -0.67076178 0.18394278 0.71850100 2.2 0 0 0
106 1 1.402083 15.899023 7.233993 0.32503665 0.27452416 0.90497937 2.2 0 0 0
107 1 -0.025456 14.267715 8.631623 -0.55293130 -0.39888920 0.73154247 2.2 0 0 0
108 1 1.423489 15.713216 10.085270 0.62170955 0.27443921 0.73359414 2.2 0 0 0
109 1 0.007534 14.463649 11.309332 0.63357488 0.13842159 0.76119796 2.2 0 0 0
110 1 1.490099 15.782751 12.918545 0.34501965 -0.28796972 0.89332798 2.2 0 0 0
111 1 0.075058 14.335689 14.345036 -0.93564833 -0.26835757 0.22923003 2.2 0 0 0
112 1 1.417617 15.836399 15.820750 -0.11797338 -0.22114255 0.96807967 2.2 0 0 0
113 1 -0.146036 14.226296 17.212437 0.42136613 -0.09814341 0.90156445 2.2 0 0 0
114 1 1.492321 15.623503 18.620846 0.11689746 -0.06613606 0.99093946 2.2 0 0 0
115 1 0.004869 14.442286 20.039490 0.32098264 0.63851834 0.69947443 2.2 0 0 0
116 1 1.295451 15.756268 21.419360 -0.12506234 -0.31438059 0.94102298 2.2 0 0 0
117 1 -0.005486 14.295145 22.902668 -0.03802834 0.54388036 0.83830066 2.2 0 0 0
118 1 1.357642 15.712463 24.364460 -0.19127803 -0.55217325 0.81149086 2.2 0 0 0
119 1 0.045483 14.220225 25.820419 0.30518224 0.37770944 0.87418498 2.2 0 0 0
120 1 1.359394 15.752474 27.160011 -0.32971101 -0.24745809 0.91107362 2.2 0 0 0
121 1 0.025915 17.288826 0.021873 0.46483680 0.80751712 0.36310170 2.2 0 0 0
122 1 1.336784 18.668596 1.364853 -0.45486940 0.00824498 0.89051999 2.2 0 0 0
123 1 -0.044849 17.159356 2.889248 0.25173657 0.25641571 0.93320935 2.2 0 0 0
124 1 1.397318 18.634801 4.391915 0.35466851 -0.46032349 0.81382586 2.2 0 0 0
125 1 0.050041 17.069892 5.745795 0.50214697 -0.13449332 0.85425989 2.2 0 0 0
126 1 1.402645 18.656209 7.132233 0.00684346 0.08996201 0.99592169 2.2 0 0 0
127 1 0.074452 17.082236 8.590771 -0.34665033 0.11661693 0.93071695 2.2 0 0 0
128 1 1.448735 18.568003 10.032395 -0.90971277 -0.18400330 0.37224381 2.2 0 0 0
129 1 0.025183 17.216647 11.349291 0.52127490 0.39813498 0.75482515 2.2 0 0 0
130 1 1.411808 18.668936 12.811696 -0.25301677 0.76104573 0.59732061 2.2 0 0 0
131 1 0.024277 17.227841 14.439613 -0.33613720 0.43689257 0.83434805 2.2 0 0 0
132 1 1.439644 18.615334 15.689753 -0.16233223 0.21563998 0.96288506 2.2 0 0 0
133 1 -0.040195 17.263339 17.233985 0.06542531 0.98909207 -0.13197124 2.2 0 0 0
134 1 1.360543 18.637611 18.706853 -0.26720224 -0.48506467 0.83265553 2.2 0 0 0
135 1 -0.005811 17.252290 20.029817 0.15376294 0.11366536 0.98154834 2.2 0 0 0
136 1 1.378318 18.584037 21.453071 0.26246880 0.30370837 0.91589921 2.2 0 0 0
137 1 0.059659 17.237917 22.853041 -0.61323539 0.22104605 0.75834095 2.2 0 0 0
138 1 1.416070 18.568697 24.286676 -0.01553631 -0.18311791 0.98296819 2.2 0 0 0
139 1 -0.085815 17.195163 25.794308 -0.85910921 -0.07726531 0.50592632 2.2 0 0 0
140 1 1.447602 18.806111 27.284465 -0.07269554 -0.15137894 0.98579905 2.2 0 0 0
141 1 0.140239 19.960213 -0.080636 0.51172425 0.16042542 0.84403909 2.2 0 0 0
142 1 1.490496 21.431612 1.446432 0.39585318 0.89005471 0.22605943 2.2 0 0 0
143 1 0.087725 20.005283 2.893895 0.33900823 -0.42120761 0.84122385 2.2 0 0 0
144 1 1.383764 21.510451 4.230155 0.22525951 0.08643708 0.97045700 2.2 0 0 0
145 1 0.032585 19.989564 5.688443 0.03152635 -0.18598589 0.98204650 2.2 0 0 0
146 1 1.478429 21.516429 7.132452 -0.06910402 0.09503712 0.99307229 2.2 0 0 0
147 1 0.089660 20.087453 8.532615 0.14576351 -0.33553334 0.93068275 2.2 0 0 0
148 1 1.366074 21.574728 10.047276 -0.31306759 0.08817012 0.94562927 2.2 0 0 0
149 1 -0.110088 20.127113 11.509691 -0.73648937 0.04777588 0.67475987 2.2 0 0 0
150 1 1.409024 21.454159 12.877171 0.05806111 0.48044916 0.87509858 2.2 0 0 0
151 1 0.063600 20.148590 14.318998 0.37781941 -0.25566521 0.88988078 2.2 0 0 0
152 1 1.378681 21.504684 15.704930 0.85033657 -0.02641355 0.52557591 2.2 0 0 0
153 1 0.068541 20.012999 17.098385 0.46863088 0.24765195 0.84797029 2.2 0 0 0
154 1 1.467505 21.517306 18.580155 -0.14887572 -0.44934739 0.88086488 2.2 0 0 0
155 1 0.097348 20.035304 20.095916 -0.60988684 -0.39990098 0.68419095 2.2 0 0 0
156 1 1.414666 21.543381 21.554463 -0.60990160 0.17580440 0.77273077 2.2 0 0 0
157 1 0.010608 20.101302 22.978589 0.08374717 -0.58697763 0.80526001 2.2 0 0 0
158 1 1.424821 21.573315 24.317754 0.54526508 0.14743292 0.82519666 2.2 0 0 0
159 1 -0.021601 20.011171 25.796652 0.59168378 0.40437532 0.69741731 2.2 0 0 0
160 1 1.350398 21.511412 27.255710 0.16230025 -0.12331128 0.97900611 2.2 0 0 0
161 1 0.087367 23.079665 0.015521 -0.01645742 -0.16090254 0.98683308 2.2 0 0 0
162 1 1.451740 24.375914 1.438403 -0.24374196 0.14978208 0.95820415 2.2 0 0 0
163 1 0.033856 22.957768 2.785385 0.43250611 -0.00750621 0.90159975 2.2 0 0 0
164 1 1.354683 24.383449 4.301952 -0.01668372 -0.05256366 0.99847820 2.2 0 0 0
165 1 0.030968 22.978228 5.800905 -0.25159787 0.03803384 0.96708425 2.2 0 0 0
166 1 1.394379 24.380231 7.271618 -0.33255202 -0.15944490 0.92950873 2.2 0 0 0
167 1 0.074327 22.915095 8.529053 -0.87927226 0.11660111 0.46182732 2.2 0 0 0
168 1 1.457928 24.301038 10.082979 0.10566830 0.20086578 0.97390305 2.2 0 0 0
169 1 0.013841 22.966857 11.450043 -0.03685728 0.99737977 0.06225064 2.2 0 0 0
170 1 1.515044 24.223525 12.876524 0.65918208 -0.17127628 0.73221815 2.2 0 0 0
171 1 -0.021343 23.069446 14.382853 -0.36683004 -0.31393234 0.87571811 2.2 0 0 0
172 1 1.428632 24.405888 15.716284 -0.34992852 -0.40270235 0.84580189 2.2 0 0 0
173 1 0.083179 22.741451 17.162267 -0.10883130 -0.16139120 0.98087136 2.2 0 0 0
174 1 1.404072 24.452073 18.713193 0.28059709 0.17100419 0.94446961 2.2 0 0 0
175 1 -0.113704 22.883925 20.041399 0.56351759 0.11550172 0.81798978 2.2 0 0 0
176 1 1.483978 24.408170 21.535569 -0.34622096 -0.07700474 0.93498733 2.2 0 0 0
177 1 -0.003205 22.996669 22.879125 0.36822082 -0.54858982 0.75064148 2.2 0 0 0
178 1 1.551009 24.288668 24.482277 -0.17063982 -0.47023387 0.86588808 2.2 0 0 0
179 1 0.003767 22.805221 25.933617 -0.23377258 -0.34590873 0.90867900 2.2 0 0 0
180 1 1.411945 24.431119 27.140460 -0.44338666 0.37729004 0.81305627 2.2 0 0 0
181 1 0.032434 25.733603 -0.056272 0.85460620 -0.28543206 0.43379348 2.2 0 0 0
182 1 1.453025 27.138256 1.458500 -0.16763559 0.72505661 0.66797546 2.2 0 0 0
183 1 0.069927 25.927362 2.905211 -0.84453952 0.10651702 0.52479246 2.2 0 0 0
184 1 1.396943 27.186764 4.391950 0.38635347 -0.45145310 0.80431406 2.2 0 0 0
185 1 0.075206 25.767341 5.694236 0.52443596 -0.37135063 0.76620208 2.2 0 0 0
186 1 1.407251 27.276893 7.211709 0.44759709 -0.67045411 0.59173316 2.2 0 0 0
187 1 -0.040821 25.841175 8.679086 0.06037497 0.24165188 0.96848295 2.2 0 0 0
188 1 1.457154 27.202777 10.043242 -0.96671545 0.21682885 0.13581788 2.2 0 0 0
189 1 0.028732 25.709096 11.380911 -0.96099453 0.23047803 -0.15287048 2.2 0 0 0
190 1 1.453287 27.298966 12.942444 -0.82135857 0.13686479 0.55374916 2.2 0 0 0
191 1 -0.007807 25.816073 14.359446 -0.23185880 0.20925304 0.94997614 2.2 0 0 0
192 1 1.551067 27.317080 15.659552 -0.32007886 -0.27300628 0.90720290 2.2 0 0 0
193 1 0.045576 25.755297 17.245973 -0.26212600 -0.52088450 0.81238494 2.2 0 0 0
194 1 1.324448 27.204874 18.574670 -0.13896170 0.20077508 0.96973141 2.2 0 0 0
195 1 0.062103 25.738988 20.114554 0.29105130 -0.38549716 0.87560327 2.2 0 0 0
196 1 1.416680 27.276163 21.471458 -0.45041669 0.62764165 0.63497304 2.2 0 0 0
197 1 0.088361 25.771984 22.940091 0.01315302 -0.13377593 0.99092432 2.2 0 0 0
198 1 1.474427 27.247974 24.370092 -0.21197401 0.61210353 0.76183744 2.2 0 0 0
199 1 0.039120 25.697201 25.864166 0.25273178 0.12545542 0.95936833 2.2 0 0 0
200 1 1.480273 27.196824 27.192767 0.07953236 0.52083403 0.84994501 2.2 0 0 0
201 1 2.867276 0.073743 0.090077 0.67164400 -0.44589883 0.59166593 2.2 0 0 0
202 1 4.363870 1.418228 1.546061 -0.35470812 0.05999179 0.93305045 2.2 0 0 0
203 1 2.906428 -0.126492 2.829286 -0.05977484 -0.23350049 0.97051764 2.2 0 0 0
204 1 4.273833 1.284089 4.371857 -0.34071898 -0.87726153 0.33811653 2.2 0 0 0
205 1 2.879455 0.063551 5.854135 0.32873589 -0.39317858 0.85868697 2.2 0 0 0
206 1 4.290812 1.523557 7.189114 0.37054630 0.20172590 0.90664332 2.2 0 0 0
207 1 2.896865 -0.036670 8.611287 0.15061903 -0.29695218 0.94293866 2.2 0 0 0
208 1 4.287966 1.392109 10.110802 0.54315488 -0.68367277 0.48741596 2.2 0 0 0
209 1 2.852529 -0.018431 11.575770 -0.39068642 0.49297750 0.77739135 2.2 0 0 0
210 1 4.312206 1.421864 12.961139 -0.42737861 -0.08891060 0.89969018 2.2 0 0 0
211 1 2.839720 0.029439 14.444441 0.03913870 0.74946440 0.66088673 2.2 0 0 0
212 1 4.416795 1.393390 15.748850 -0.12460541 0.07761070 0.98916635 2.2 0 0 0
213 1 2.764642 -0.048001 17.151408 0.52453456 -0.18622034 0.83077403 2.2 0 0 0
214 1 4.332646 1.542059 18.593755 -0.18574866 0.22007136 0.95763565 2.2 0 0 0
215 1 2.960109 -0.043959 19.991856 -0.40878923 -0.32017338 0.85462294 2.2 0 0 0
216 1 4.132462 1.325968 21.537918 0.06690096 0.08800858 0.99387059 2.2 0 0 0
217 1 2.879070 -0.012299 22.892967 0.20262601 -0.78504840 0.58535605 2.2 0 0 0
218 1 4.378953 1.315698 24.515674 -0.26387439 -0.10030512 0.95932747 2.2 0 0 0
219 1 2.878440 0.056553 25.857700 -0.05578629 -0.09009551 0.99436949 2.2 0 0 0
220 1 4.290170 1.446582 27.228465 0.55141128 -0.55176084 0.62570407 2.2 0 0 0
221 1 3.001050 2.921190 0.043885 -0.09506064 -0.18433000 0.97825658 2.2 0 0 0
222 1 4.300722 4.266803 1.439864 0.37645980 -0.05137247 0.92500751 2.2 0 0 0
223 1 2.892742 2.998474 2.902673 0.69800469 0.21966859 0.68156817 2.2 0 0 0
224 1 4.367330 4.224862 4.331929 0.17568610 -0.00499988 0.98443354 2.2 0 0 0
225 1 3.098199 2.879039 5.772531 0.27119606 0.90947026 0.31514528 2.2 0 0 0
226 1 4.138893 4.291032 7.244131 -0.32439127 0.37723932 0.86744499 2.2 0 0 0
227 1 2.787008 2.892458 8.528430 -0.37295520 -0.04228411 0.92688536 2.2 0 0 0
228 1 4.361820 4.218956 9.939193 -0.42010827 0.13476156 0.89741204 2.2 0 0 0
229 1 2.995130 2.936666 11.371015 0.27512103 0.23485807 0.93228220 2.2 0 0 0
230 1 4.239470 4.422762 12.814745 -0.10440591 -0.00779368 0.99450423 2.2 0 0 0
231 1 2.912165 2.757729 14.414678 0.33038152 0.36551879 0.87019772 2.2 0 0 0
232 1 4.365799 4.260101 15.683176 -0.48190003 -0.02291391 0.87592654 2.2 0 0 0
233 1 2.926874 2.881814 17.183648 -0.40454371 -0.25766286 0.87747036 2.2 0 0 0
234 1 4.330232 4.323916 18.782699 -0.37345047 -0.33777928 0.86396754 2.2 0 0 0
235 1 2.884441 3.010645 19.945232 0.38736293 0.75101557 0.53472008 2.2 0 0 0
236 1 4.502472 4.260781 21.574682 -0.18429923 0.15650177 0.97033035 2.2 0 0 0
237 1 2.971416 2.845966 22.956562 -0.54422312 0.07804322 0.83530261 2.2 0 0 0
238 1 4.343996 4.364090 24.472644 0.78831293 -0.00894439 0.61520950 2.2 0 0 0
239 1 2.983981 2.788405 25.952262 0.28373474 -0.08316297 0.95528976 2.2 0 0 0
240 1 4.221606 4.278573 27.104893 -0.12469178 0.60795976 0.78411535 2.2 0 0 0
241 1 2.967329 5.869101 0.089981 0.00442473 0.70599231 0.70820568 2.2 0 0 0
242 1 4.343601 7.192260 1.353796 0.17984345 0.56236910 0.80709189 2.2 0 0 0
243 1 2.865052 5.691163 2.930366 0.60380927 -0.04552833 0.79582758 2.2 0 0 0
244 1 4.336773 7.187558 4.246672 0.45860496 0.60865734 0.64747025 2.2 0 0 0
245 1 2.980294 5.784328 5.786612 0.49974176 0.36872919 0.78377099 2.2 0 0 0
246 1 4.254082 7.191437 7.181507 -0.48210976 0.86775568 0.12070729 2.2 0 0 0
247 1 2.820684 5.697711 8.637809 -0.50057169 -0.46756327 0.72856885 2.2 0 0 0
248 1 4.452285 7.139818 10.055269 -0.33732252 -0.35269696 0.87282207 2.2 0 0 0
249 1 2.997925 5.706865 11.382855 0.42685937 -0.77408713 0.46752560 2.2 0 0 0
250 1 4.357771 7.143650 12.946239 0.25463911 0.01960982 0.96683731 2.2 0 0 0
251 1 2.904930 5.663375 14.303879 0.55322722 0.03278498 0.83238500 2.2 0 0 0
252 1 4.293294 7.189899 15.851317 0.58407018 0.33198079 0.74070965 2.2 0 0 0
253 1 2.774609 5.583120 17.180310 0.06185281 -0.08763177 0.99423081 2.2 0 0 0
254 1 4.262647 7.088433 18.553252 -0.41047948 0.08463008 0.90793411 2.2 0 0 0
255 1 2.833625 5.770142 20.142898 -0.13374238 -0.81955565 0.55717278 2.2 0 0 0
256 1 4.334804 7.290229 21.359456 0.74632332 0.35790379 0.56116520 2.2 0 0 0
257 1 2.784849 5.747976 22.994403 0.28578526 -0.37809058 0.88055341 2.2 0 0 0
258 1 4.348132 7.101230 24.320978 0.12188791 0.66466655 0.73713073 2.2 0 0 0
259 1 2.844780 5.723710 25.900853 0.77375876 -0.02635216 0.63293202 2.2 0 0 0
260 1 4.339463 7.294130 27.302004 0.66908089 0.45585056 0.58696765 2.2 0 0 0
261 1 2.956806 8.504000 0.031253 0.24728066 -0.80589184 0.53795039 2.2 0 0 0
262 1 4.286866 9.985637 1.412039 -0.05455004 -0.48014427 0.87549173 2.2 0 0 0
263 1 2.816371 8.556423 2.862011 -0.12860924 -0.21543657 0.96801175 2.2 0 0 0
264 1 4.281774 10.117864 4.255286 -0.95940229 -0.16362038 0.22972942 2.2 0 0 0
265 1 2.866944 8.706094 5.749366 0.07598682 0.24987299 0.96529244 2.2 0 0 0
266 1 4.338185 10.066467 7.123946 -0.16332754 0.36847805 0.91517651 2.2 0 0 0
267 1 2.850404 8.488401 8.634638 0.35756702 0.14976670 0.92180028 2.2 0 0 0
268 1 4.344084 9.990343 9.956265 0.15101581 -0.15889635 0.97567729 2.2 0 0 0
269 1 2.739582 8.613653 11.515504 -0.06892829 0.38884966 0.91871912 2.2 0 0 0
270 1 4.274687 10.031110 12.902157 -0.47147640 -0.10575687 0.87551441 2.2 0 0 0
271 1 2.839562 8.604755 14.229690 0.18288836 0.19936332 0.96270770 2.2 0 0 0
272 1 4.297627 10.018313 15.778295 0.53302034 0.73889494 0.41221788 2.2 0 0 0
273 1 2.932480 8.328634 17.310669 -0.29724858 0.20492439 0.93254988 2.2 0 0 0
274 1 4.272998 10.076487 18.610392 -0.21430878 -0.85864150 0.46562487 2.2 0 0 0
275 1 2.921717 8.611350 20.100289 0.97072043 -0.23672325 -0.04079164 2.2 0 0 0
276 1 4.327173 10.060300 21.388045 -0.13930175 0.19963440 0.96991810 2.2 0 0 0
277 1 2.910060 8.579289 22.956633 -0.10807566 0.59828065 0.79396468 2.2 0 0 0
278 1 4.222137 10.160302 24.401936 -0.59085764 -0.30206330 0.74809426 2.2 0 0 0
279 1 2.761071 8.632142 25.707394 -0.57804269 -0.81002911 0.09858753 2.2 0 0 0
280 1 4.329123 10.010673 27.231670 0.44379461 -0.29785162 0.84518090 2.2 0 0 0
281 1 2.872811 11.624823 0.053567 0.36223239 -0.01395221 0.93198339 2.2 0 0 0
282 1 4.303848 12.918658 1.408819 0.15125974 0.44737762 0.88146115 2.2 0 0 0
283 1 2.884391 11.350551 2.820095 0.22274291 0.87925383 0.42106805 2.2 0 0 0
284 1 4.215038 12.991126 4.359116 -0.35070991 -0.05390458 0.93493147 2.2 0 0 0
285 1 2.892620 11.438291 5.709782 -0.43128875 0.17498251 0.88508256 2.2 0 0 0
286 1 4.341060 13.077044 7.100867 0.07350712 0.18861175 0.97929685 2.2 0 0 0
287 1 2.960699 11.442552 8.478193 -0.21200145 0.43517981 0.87502795 2.2 0 0 0
288 1 4.259192 12.847925 10.017797 -0.77758634 -0.17596469 0.60365215 2.2 0 0 0
289 1 2.818832 11.505766 11.572905 0.51276083 -0.18479146 0.83840828 2.2 0 0 0
290 1 4.336129 13.029610 12.915873 0.44286043 -0.53481220 0.71961834 2.2 0 0 0
291 1 2.805342 11.526546 14.302794 0.06413877 -0.29844213 0.95227019 2.2 0 0 0
292 1 4.355452 12.833221 15.849761 -0.18283726 0.19214357 0.96418431 2.2 0 0 0
293 1 2.859377 11.455640 17.190394 0.88611844 -0.45368291 0.09468860 2.2 0 0 0
294 1 4.194748 12.946665 18.532275 -0.39606998 -0.07998145 0.91473031 2.2 0 0 0
295 1 2.831741 11.463964 19.873688 -0.00975569 0.43468122 0.90053155 2.2 0 0 0
296 1 4.405736 12.896956 21.451307 0.62084297 -0.12295666 0.77423230 2.2 0 0 0
297 1 2.805825 11.344615 22.902747 -0.18750103 -0.14040596 0.97217773 2.2 0 0 0
298 1 4.191848 12.851219 24.207364 0.32904516 0.29203611 0.89802238 2.2 0 0 0
299 1 2.874293 11.328464 25.738518 -0.52661301 -0.48015718 0.70151822 2.2 0 0 0
300 1 4.277637 12.892774 27.130056 -0.29773078 0.03642176 0.95395484 2.2 0 0 0
301 1 2.842165 14.306217 0.004047 -0.06799974 -0.15776027 0.98513336 2.2 0 0 0
302 1 4.238612 15.671896 1.432519 -0.33348887 0.24030240 0.91161391 2.2 0 0 0
303 1 2.717627 14.188576 2.868845 -0.55585313 0.45466805 0.69591972 2.2 0 0 0
304 1 4.345717 15.899599 4.253733 -0.42693329 0.18003234 0.88618075 2.2 0 0 0
305 1 2.804423 14.250473 5.763555 -0.33579725 0.26326886 0.90439467 2.2 0 0 0
306 1 4.221290 15.570891 7.133421 -0.19003225 0.81506814 0.54731314 2.2 0 0 0
307 1 2.902380 14.548473 8.608641 -0.43727040 -0.12849329 0.89010341 2.2 0 0 0
308 1 4.382382 15.736350 9.971153 -0.15760245 0.35493460 0.92151120 2.2 0 0 0
309 1 2.938589 14.275195 11.425608 -0.72928510 0.23098979 0.64403957 2.2 0 0 0
310 1 4.246496 15.743074 12.888705 0.10644082 0.06958446 0.99188122 2.2 0 0 0
311 1 2.915343 14.336550 14.286697 0.24714642 -0.08151445 0.96554339 2.2 0 0 0
312 1 4.269108 15.810688 15.711712 0.31945653 -0.09640619 0.94268413 2.2 0 0 0
313 1 2.903311 14.340339 17.122046 -0.08855411 0.60307656 0.79275269 2.2 0 0 0
314 1 4.339286 15.822089 18.617852 -0.34579509 -0.38295848 0.85660292 2.2 0 0 0
315 1 2.861189 14.301282 19.980546 0.01391342 0.21632534 0.97622219 2.2 0 0 0
316 1 4.260333 15.722066 21.504006 0.27405238 0.60864457 0.74461203 2.2 0 0 0
317 1 2.903134 14.259730 22.839794 -0.64332990 0.24013719 0.72695308 2.2 0 0 0
318 1 4.205246 15.692944 24.419089 -0.32986587 0.68364127 0.65101699 2.2 0 0 0
319 1 2.945935 14.274401 25.816281 0.13677738 -0.66332804 0.73572268 2.2 0 0 0
320 1 4.356052 15.850067 27.188089 -0.73964093 0.42967669 0.51798574 2.2 0 0 0
321 1 2.702770 17.225821 -0.164411 0.07759113 -0.35554991 0.93143109 2.2 0 0 0
322 1 4.271088 18.711613 1.368494 -0.32465654 0.34716453 0.87981528 2.2 0 0 0
323 1 2.863397 17.122196 3.016528 -0.28108464 -0.74022096 0.61078995 2.2 0 0 0
324 1 4.243707 18.602802 4.336304 0.26086092 -0.31726261 0.91175436 2.2 0 0 0
325 1 2.918315 17.241359 5.757513 0.00855217 0.69191959 0.72192392 2.2 0 0 0
326 1 4.421959 18.565590 7.095006 0.19028410 -0.25004635 0.94935177 2.2 0 0 0
327 1 2.785561 17.207874 8.610180 -0.29451335 0.20921009 0.93246610 2.2 0 0 0
328 1 4.297125 18.592823 10.239450 -0.68504881 0.16524295 0.70950891 2.2 0 0 0
329 1 2.852954 17.202526 11.391214 -0.12751969 0.13742246 0.98226972 2.2 0 0 0
330 1 4.337634 18.514793 12.823960 0.19066437 -0.54765691 0.81468951 2.2 0 0 0
331 1 2.798062 17.202860 14.364502 0.61616367 0.10136645 0.78106797 2.2 0 0 0
332 1 4.267313 18.644197 15.884238 -0.13208740 -0.32395887 0.93680498 2.2 0 0 0
333 1 2.796835 17.223497 17.272561 -0.36762485 0.60443701 0.70675870 2.2 0 0 0
334 1 4.237022 18.581338 18.623941 0.65420771 -0.10830729 0.74851974 2.2 0 0 0
335 1 2.967384 17.268503 20.061649 0.70763232 0.23391595 0.66673820 2.2 0 0 0
336 1 4.299869 18.651005 21.372864 -0.28728010 -0.84302836 0.45472335 2.2 0 0 0
337 1 2.903611 17.342483 22.961420 -0.25570781 -0.69871368 0.66814124 2.2 0 0 0
338 1 4.280296 18.692255 24.287815 0.21814450 -0.12452872 0.96793883 2.2 0 0 0
339 1 2.924914 17.125349 25.792979 -0.54441835 0.15131316 0.82505333 2.2 0 0 0
340 1 4.306449 18.710051 27.204068 0.30558933 0.59744677 0.74139903 2.2 0 0 0
341 1 2.803567 20.092671 -0.079037 -0.13596029 0.05271013 0.98931110 2.2 0 0 0
342 1 4.348345 21.511844 1.502589 -0.85178684 0.27330673 0.44694811 2.2 0 0 0
343 1 2.868368 20.074581 2.751004 -0.64132294 -0.22956692 0.73212289 2.2 0 0 0
344 1 4.278566 21.543266 4.262834 -0.52392388 0.17073101 0.83447869 2.2 0 0 0
345 1 2.933443 20.043841 5.690781 0.22663144 0.08471080 0.97028979 2.2 0 0 0
346 1 4.269456 21.580438 7.248117 -0.04035450 -0.38503787 0.92201809 2.2 0 0 0
347 1 2.753463 19.978370 8.592743 0.17001254 0.96498383 0.19975473 2.2 0 0 0
348 1 4.260923 21.431181 10.084322 -0.39470221 -0.04781950 0.91756387 2.2 0 0 0
349 1 2.907295 20.035783 11.572691 0.59866076 0.02990044 0.80044442 2.2 0 0 0
350 1 4.396869 21.471927 12.881966 -0.43408699 -0.17432383 0.88384370 2.2 0 0 0
351 1 2.913750 20.080626 14.231230 0.36542898 -0.53561577 0.76129981 2.2 0 0 0
352 1 4.383373 21.542165 15.749515 0.12125741 0.42904043 0.89510946 2.2 0 0 0
353 1 2.871084 19.979736 17.180594 0.14023943 -0.05520718 0.98857730 2.2 0 0 0
354 1 4.329334 21.403883 18.627951 -0.09277365 0.89142831 0.44356354 2.2 0 0 0
355 1 2.904139 20.115465 19.959745 0.05366076 0.11734163 0.99164079 2.2 0 0 0
356 1 4.281954 21.407925 21.510613 -0.37808402 -0.63857303 0.67028125 2.2 0 0 0
357 1 2.905206 20.076487 22.849056 -0.49850882 -0.38256344 0.77790370 2.2 0 0 0
358 1 4.351582 21.522481 24.353824 0.33309143 -0.29031877 0.89708702 2.2 0 0 0
359 1 2.868594 20.143120 25.795459 -0.08283645 -0.12816262 0.98828764 2.2 0 0 0
360 1 4.266339 21.392261 27.166481 0.37618379 0.41979637 0.82598836 2.2 0 0 0
361 1 2.861062 23.019959 0.035140 0.40706879 -0.41429089 0.81403812 2.2 0 0 0
362 1 4.195159 24.339645 1.411319 -0.48116414 0.23996303 0.84314816 2.2 0 0 0
363 1 2.906248 22.825941 2.934210 -0.76024050 0.33025940 0.55943105 2.2 0 0 0
364 1 4.244317 24.356607 4.234722 -0.32489416 -0.65687941 0.68040666 2.2 0 0 0
365 1 2.901803 22.975182 5.757417 0.13850101 0.12884395 0.98194537 2.2 0 0 0
366 1 4.458914 24.378631 7.067927 0.04575132 -0.74135647 0.66955014 2.2 0 0 0
367 1 2.751515 22.888770 8.664267 -0.08453818 0.37125498 0.92467456 2.2 0 0 0
368 1 4.161751 24.383648 9.986287 -0.47320205 -0.63069176 0.61506725 2.2 0 0 0
369 1 2.829371 23.029935 11.413138 0.06068626 0.52051326 0.85169426 2.2 0 0 0
370 1 4.415683 24.310596 12.970389 -0.34245162 0.16630552 0.92469961 2.2 0 0 0
371 1 2.824851 22.852231 14.410480 0.30117218 0.25613875 0.91852505 2.2 0 0 0
372 1 4.291784 24.404301 15.804808 0.55243878 -0.19214532 0.81110515 2.2 0 0 0
373 1 2.699984 22.858538 17.229127 -0.62877710 -0.33138905 0.70343490 2.2 0 0 0
374 1 4.323544 24.301752 18.633465 -0.09988217 -0.45116269 0.88683469 2.2 0 0 0
375 1 2.876001 22.891022 20.015347 0.27695358 -0.65255033 0.70531892 2.2 0 0 0
376 1 4.338394 24.243958 21.432528 -0.06281404 -0.63940238 0.76630215 2.2 0 0 0
377 1 2.755773 22.987821 22.932963 0.16943788 0.54316289 0.82235326 2.2 0 0 0
378 1 4.196663 24.442164 24.349249 -0.06774225 0.59339181 0.80205807 2.2 0 0 0
379 1 2.891158 23.080405 25.774547 0.26320099 -0.16292858 0.95088355 2.2 0 0 0
380 1 4.285404 24.318644 27.218753 -0.59430677 0.05709719 0.80220906 2.2 0 0 0
381 1 2.766151 25.843669 -0.052902 -0.08949501 0.05731930 0.99433653 2.2 0 0 0
382 1 4.353958 27.225197 1.472815 0.19490645 -0.16183329 0.96737865 2.2 0 0 0
383 1 2.922121 25.869928 2.942188 0.11704502 0.35210870 0.92861183 2.2 0 0 0
384 1 4.455603 27.092474 4.400571 0.43676360 0.05987817 0.89758128 2.2 0 0 0
385 1 2.827006 25.794839 5.804329 0.07102692 -0.92290952 0.37840877 2.2 0 0 0
386 1 4.277119 27.131132 7.192749 0.11379204 0.80831988 0.57764206 2.2 0 0 0
387 1 2.887444 25.744740 8.628086 0.32675272 0.45240045 0.82979907 2.2 0 0 0
388 1 4.320317 27.111550 9.877832 -0.31267072 0.43801781 0.84283891 2.2 0 0 0
389 1 2.962697 25.830530 11.452651 -0.58710665 -0.71553892 0.37856285 2.2 0 0 0
390 1 4.262475 27.233468 12.900671 -0.26728475 0.89579555 0.35511858 2.2 0 0 0
391 1 2.792870 25.830599 14.270949 0.49297509 0.44179320 0.74952940 2.2 0 0 0
392 1 4.281750 27.349194 15.870628 -0.22249563 -0.34679997 0.91116709 2.2 0 0 0
393 1 2.769415 25.799127 17.260602 -0.61264545 0.57566610 0.54154787 2.2 0 0 0
394 1 4.195923 27.220774 18.753710 0.05232218 0.72506403 0.68669101 2.2 0 0 0
395 1 2.801589 25.904975 20.098358 0.37664722 0.21851355 0.90021592 2.2 0 0 0
396 1 4.302921 27.210863 21.428820 0.51705591 0.05731882 0.85403029 2.2 0 0 0
397 1 2.732307 25.704399 22.840695 -0.87417113 0.27993362 0.39681482 2.2 0 0 0
398 1 4.334302 27.272751 24.278316 0.86187217 -0.40697645 0.30256659 2.2 0 0 0
399 1 2.927624 25.785156 25.667079 0.28086624 -0.33814882 0.89820350 2.2 0 0 0
400 1 4.279651 27.246130 27.344832 0.43687880 0.40329577 0.80404567 2.2 0 0 0
401 1 5.754552 -0.102099 0.043092 0.53263729 -0.42997485 0.72898501 2.2 0 0 0
402 1 7.058915 1.440484 1.338348 0.44798918 -0.19555651 0.87238945 2.2 0 0 0
403 1 5.726246 0.001042 2.807289 -0.73818906 0.43164634 0.51841909 2.2 0 0 0
404 1 7.150752 1.324992 4.228704 0.09163858 0.25753263 0.96191440 2.2 0 0 0
405 1 5.832773 0.019700 5.951105 0.34664732 -0.16055955 0.92415165 2.2 0 0 0
406 1 7.285133 1.522670 7.309531 -0.02785085 0.56155218 0.82697248 2.2 0 0 0
407 1 5.774417 0.017031 8.560997 -0.76521997 -0.07088932 0.63985396 2.2 0 0 0
408 1 7.121888 1.485834 10.130726 0.12252537 0.25682436 0.95865989 2.2 0 0 0
409 1 5.635916 -0.082596 11.426260 -0.45795908 0.16532522 0.87346497 2.2 0 0 0
410 1 7.175307 1.333139 12.916142 -0.21473501 0.01940799 0.97647950 2.2 0 0 0
411 1 5.753660 0.085613 14.434934 -0.71154169 -0.21467969 0.66904488 2.2 0 0 0
412 1 7.121067 1.437340 15.789236 -0.88064314 0.26297165 0.39409842 2.2 0 0 0
413 1 5.759738 0.034759 17.264908 0.70509704 -0.08209823 0.70434227 2.2 0 0 0
414 1 7.278432 1.434573 18.555513 -0.01171260 -0.23462552 0.97201527 2.2 0 0 0
415 1 5.740146 0.102696 20.121761 -0.17356469 -0.32533082 0.92953491 2.2 0 0 0
416 1 7.190494 1.453560 21.487306 0.62863704 -0.49029585 0.60367661 2.2 0 0 0
417 1 5.674060 0.035880 22.941960 -0.64957807 0.17819436 0.73911779 2.2 0 0 0
418 1 7.263835 1.467499 24.372565 -0.45376956 0.06318264 0.88887634 2.2 0 0 0
419 1 5.709416 0.045341 25.870440 -0.29959977 -0.19003473 0.93494747 2.2 0 0 0
420 1 7.274303 1.388497 27.290658 -0.21551531 -0.45598014 0.86350174 2.2 0 0 0
421 1 5.646226 2.925489 -0.079847 0.35220205 -0.10338586 0.93019626 2.2 0 0 0
422 1 7.218913 4.319850 1.643849 0.36592096 0.49878019 0.78569726 2.2 0 0 0
423 1 5.725562 2.807378 2.905261 -0.02184526 0.45517504 0.89013396 2.2 0 0 0
424 1 7.108470 4.248514 4.310191 -0.52326721 -0.44730299 0.72533541 2.2 0 0 0
425 1 5.570500 2.755859 5.701411 -0.23042603 -0.19259880 0.95383937 2.2 0 0 0
426 1 7.270814 4.274332 7.146044 -0.54700965 -0.20224616 0.81232809 2.2 0 0 0
427 1 5.609881 2.776774 8.483223 0.34199408 0.04531373 0.93860892 2.2 0 0 0
428 1 7.249612 4.289487 9.964591 -0.43413554 -0.51165489 0.74144158 2.2 0 0 0
429 1 5.796188 2.893641 11.488916 -0.71203931 0.45387119 0.53572470 2.2 0 0 0
430 1 7.033520 4.347315 12.800391 -0.50773023 -0.06863245 0.85877797 2.2 0 0 0
431 1 5.671702 2.946259 14.304020 -0.32697947 0.10397952 0.93929372 2.2 0 0 0
432 1 7.184703 4.195242 15.719188 0.25221406 0.72148626 0.64486094 2.2 0 0 0
433 1 5.777104 2.944124 17.099901 -0.26058101 -0.42881221 0.86499574 2.2 0 0 0
434 1 7.259387 4.224851 18.649910 0.20341382 0.00726517 0.97906590 2.2 0 0 0
435 1 5.869088 2.836696 20.057102 0.04235230 -0.42333507 0.90498271 2.2 0 0 0
436 1 7.157149 4.354021 21.400203 -0.23327856 -0.64796308 0.72506894 2.2 0 0 0
437 1 5.857767 2.761787 23.050637 -0.56626346 0.39211596 0.72497639 2.2 0 0 0
438 1 7.145930 4.414183 24.306084 -0.48082241 -0.17670279 0.85882824 2.2 0 0 0
439 1 5.752971 2.885489 25.737805 0.51109976 0.66818785 0.54064964 2.2 0 0 0
440 1 7.255028 4.122586 27.231814 0.39752446 0.19098022 0.89749700 2.2 0 0 0
441 1 5.801550 5.648059 0.021542 0.45490078 0.38747585 0.80182775 2.2 0 0 0
442 1 7.178975 7.238110 1.561377 0.48010632 0.42049505 0.76985832 2.2 0 0 0
443 1 5.668323 5.764192 2.857891 0.64725485 0.03981139 0.76123335 2.2 0 0 0
444 1 7.166795 7.086799 4.222085 -0.43774988 0.05909822 0.89715241 2.2 0 0 0
445 1 5.626983 5.624376 5.661076 0.49305727 0.13173527 0.85996532 2.2 0 0 0
446 1 7.270353 7.239969 7.186249 -0.13472495 0.20546041 0.96934782 2.2 0 0 0
447 1 5.720557 5.717352 8.698152 -0.23031437 0.95675457 0.17769629 2.2 0 0 0
448 1 7.236762 7.319345 10.070115 0.38998340 -0.34152933 0.85514365 2.2 0 0 0
449 1 5.706447 5.682666 11.480284 0.30759277 -0.02213499 0.95126060 2.2 0 0 0
450 1 7.229123 7.138275 12.854092 0.05770082 0.48910808 0.87031253 2.2 0 0 0
451 1 5.793588 5.783425 14.339024 0.62139938 0.69434733 0.36296638 2.2 0 0 0
452 1 7.253884 7.071075 15.826846 0.63049226 -0.01009704 0.77612986 2.2 0 0 0
453 1 5.519751 5.770569 17.384772 0.15320823 -0.59146702 0.79164007 2.2 0 0 0
454 1 7.138889 7.108366 18.579906 -0.32765736 0.14015261 0.93434357 2.2 0 0 0
455 1 5.699531 5.805433 20.071567 -0.22748864 -0.67251804 0.70425024 2.2 0 0 0
456 1 7.303851 7.195733 21.587945 -0.32045161 -0.00250689 0.94726157 2.2 0 0 0
457 1 5.804768 5.800926 23.054670 -0.47481240 0.25710052 0.84169621 2.2 0 0 0
458 1 7.151185 7.288142 24.331982 0.27408033 0.00420508 0.96169761 2.2 0 0 0
459 1 5.759687 5.663801 25.812643 0.46229643 -0.45738991 0.75965550 2.2 0 0 0
460 1 7.187647 7.245307 27.123655 -0.26754524 0.56776214 0.77850221 2.2 0 0 0
461 1 5.843226 8.570392 0.056086 0.12104539 -0.50168947 0.85653703 2.2 0 0 0
462 1 7.156655 9.997805 1.391158 -0.31072033 0.47096085 0.82562022 2.2 0 0 0
463 1 5.756389 8.725264 2.854386 -0.28731380 0.12510016 0.94963189 2.2 0 0 0
464 1 7.147899 10.088551 4.165240 -0.52009220 0.60924742 0.59859977 2.2 0 0 0
465 1 5.729415 8.611104 5.709802 -0.15369904 -0.17188684 0.97305268 2.2 0 0 0
466 1 7.145029 10.065107 7.191232 -0.35985290 0.15272524 0.92042430 2.2 0 0 0
467 1 5.697080 8.663052 8.634552 -0.17406757 0.56423257 0.80705767 2.2 0 0 0
468 1 7.225938 10.122962 10.077076 0.12087842 -0.22783309 0.96616794 2.2 0 0 0
469 1 5.689116 8.584708 11.468912 0.34735654 0.20182275 0.91575707 2.2 0 0 0
470 1 7.197360 10.091216 12.892972 0.25472604 0.30821856 0.91657840 2.2 0 0 0
471 1 5.766073 8.590461 14.343196 -0.23428941 0.16233027 0.95851831 2.2 0 0 0
472 1 7.180101 9.962648 15.674564 -0.23017955 0.22515862 0.94674229 2.2 0 0 0
473 1 5.652663 8.553623 17.156340 0.52329691 -0.38279395 0.76133379 2.2 0 0 0
474 1 7.112350 10.084966 18.602427 0.03810827 0.62924382 0.77627313 2.2 0 0 0
475 1 5.837867 8.631180 20.188347 -0.27994216 0.26214798 0.92353171 2.2 0 0 0
476 1 7.206558 9.932956 21.563594 -0.25755029 0.95161912 0.16759745 2.2 0 0 0
477 1 5.875637 8.451246 22.950588 -0.65518635 0.12849102 0.74446014 2.2 0 0 0
478 1 7.111597 10.086999 24.368447 0.54338687 0.22549358 0.80863054 2.2 0 0 0
479 1 5.713893 8.698599 25.852334 -0.00836922 0.15026842 0.98860981 2.2 0 0 0
480 1 7.185351 10.119379 27.238971 0.08390018 0.43591648 0.89606785 2.2 0 0 0
481 1 5.740731 11.355798 -0.039886 -0.19693468 0.39301894 0.89819422 2.2 0 0 0
482 1 7.108844 12.971686 1.468365 -0.55039420 -0.37286395 0.74701988 2.2 0 0 0
483 1 5.709737 11.486258 2.798535 0.91431755 0.36857328 -0.16786053 2.2 0 0 0
484 1 7.077413 12.884484 4.272938 0.22752022 0.22989742 0.94624612 2.2 0 0 0
485 1 5.699434 11.355395 5.632188 -0.09128086 -0.07961643 0.99263741 2.2 0 0 0
486 1 7.138549 12.891330 7.243669 -0.26144097 0.12531792 0.95704965 2.2 0 0 0
487 1 5.642115 11.354956 8.624564 0.12767481 0.11541126 0.98507836 2.2 0 0 0
488 1 7.212539 12.828387 9.999598 -0.23740935 0.15057252 0.95966907 2.2 0 0 0
489 1 5.894449 11.470692 11.430739 -0.42272551 -0.49549669 0.75880576 2.2 0 0 0
490 1 7.144695 12.906065 12.950556 -0.50107904 0.40481396 0.76488264 2.2 0 0 0
491 1 5.745564 11.488112 14.288730 0.17406288 -0.34247330 0.92326278 2.2 0 0 0
492 1 7.266972 12.869189 15.787395 0.59139067 0.38646529 0.70774406 2.2 0 0 0
493 1 5.697333 11.482007 17.146310 0.68481143 -0.18169975 0.70570426 2.2 0 0 0
494 1 7.152485 13.042738 18.703846 0.67659380 -0.66256745 0.32128679 2.2 0 0 0
495 1 5.751383 11.501421 19.990857 0.40079050 -0.42892192 0.80956344 2.2 0 0 0
496 1 7.100168 12.824447 21.430049 -0.35948442 0.44908852 0.81797949 2.2 0 0 0
497 1 5.695227 11.498508 22.933980 -0.13780064 -0.15776091 0.97781516 2.2 0 0 0
498 1 7.179655 12.851856 24.411554 0.61176248 0.44940945 0.65098219 2.2 0 0 0
499 1 5.851867 11.633783 25.848025 -0.07672466 -0.14276798 0.98677790 2.2 0 0 0
500 1 7.191280 12.865413 27.266194 -0.00641559 0.07928387 0.99683143 2.2 0 0 0
501 1 5.674439 14.393230 -0.066834 -0.75653440 -0.08870361 0.64791000 2.2 0 0 0
502 1 7.244766 15.691680 1.398725 0.52712099 0.37830703 0.76093841 2.2 0 0 0
503 1 5.655471 14.432547 2.821998 0.57175392 0.33879875 0.74720336 2.2 0 0 0
504 1 7.241593 15.893566 4.303789 -0.45539762 -0.80298549 0.38448317 2.2 0 0 0
505 1 5.761940 14.344161 5.661571 0.12727584 0.90299826 0.41035960 2.2 0 0 0
506 1 7.121873 15.673248 7.162238 0.57095231 -0.06378186 0.81850188 2.2 0 0 0
507 1 5.755329 14.343345 8.618013 0.22137681 0.22141719 0.94971929 2.2 0 0 0
508 1 7.134583 15.734622 10.010642 0.83421709 0.22883881 0.50171171 2.2 0 0 0
509 1 5.669137 14.366775 11.545620 0.02448160 0.00486195 0.99968846 2.2 0 0 0
510 1 7.212293 15.899841 12.951851 0.45504963 0.24219434 0.85689657 2.2 0 0 0
511 1 5.733154 14.348688 14.528413 0.41783664 -0.22846519 0.87932713 2.2 0 0 0
512 1 7.298906 15.690899 15.714949 0.18885645 -0.13419599 0.97279221 2.2 0 0 0
513 1 5.748913 14.396326 17.243820 0.31268768 -0.64454636 0.69770080 2.2 0 0 0
514 1 7.267343 15.810824 18.503675 -0.75234237 0.57523156 0.32107572 2.2 0 0 0
515 1 5.731350 14.220992 20.130582 0.04223554 -0.06674773 0.99687557 2.2 0 0 0
516 1 7.174053 15.752198 21.502643 0.09168464 0.37528680 0.92236313 2.2 0 0 0
517 1 5.773828 14.237701 22.886099 -0.60828161 -0.18237150 0.77248568 2.2 0 0 0
518 1 7.070058 15.823378 24.324077 0.01940399 -0.93349336 0.35806932 2.2 0 0 0
519 1 5.836079 14.414961 25.881429 0.24472503 0.02261423 0.96932876 2.2 0 0 0
520 1 7.219445 15.673950 27.288635 -0.19449559 -0.22152507 0.95556167 2.2 0 0 0
521 1 5.855009 17.148801 -0.028878 0.13148807 0.44510018 0.88577464 2.2 0 0 0
522 1 7.213894 18.571095 1.269132 -0.46610232 0.15387025 0.87124771 2.2 0 0 0
523 1 5.690664 17.248636 2.906030 0.70546582 0.16757767 0.68864773 2.2 0 0 0
524 1 7.064042 18.602947 4.328815 -0.12618175 -0.34082157 0.93162161 2.2 0 0 0
525 1 5.773292 17.222464 5.821555 -0.17666737 0.61211642 0.77078021 2.2 0 0 0
526 1 7.129432 18.540440 7.086179 -0.56867292 0.04052229 0.82156501 2.2 0 0 0
527 1 5.650718 17.209927 8.623913 -0.18877014 0.52188134 0.83186880 2.2 0 0 0
528 1 7.233793 18.486596 10.131498 0.57795981 0.19595409 0.79218966 2.2 0 0 0
529 1 5.714300 17.240004 11.318867 0.58349027 -0.07401455 0.80874035 2.2 0 0 0
530 1 7.173346 18.653350 12.950708 -0.42811998 0.48748901 0.76096501 2.2 0 0 0
531 1 5.660807 17.209417 14.204647 0.02371566 -0.27194021 0.96202188 2.2 0 0 0
532 1 7.112668 18.584853 15.799606 -0.18936493 -0.41557878 0.88962644 2.2 0 0 0
533 1 5.689017 17.195602 17.166024 0.10770353 -0.16838450 0.97981968 2.2 0 0 0
534 1 7.175611 18.628873 18.674894 0.09270657 -0.09931509 0.99072802 2.2 0 0 0
535 1 5.835833 17.104004 20.155852 -0.25753654 -0.01107076 0.96620514 2.2 0 0 0
536 1 7.122051 18.648406 21.475295 -0.21202535 0.34408613 0.91468573 2.2 0 0 0
537 1 5.661182 17.146367 23.074144 0.38756598 -0.06101390 0.91982059 2.2 0 0 0
538 1 7.114712 18.618415 24.242724 -0.30319815 -0.41674740 0.85696703 2.2 0 0 0
539 1 5.599921 17.298876 25.802132 0.60572061 0.52511494 0.59779332 2.2 0 0 0
540 1 7.079152 18.835079 27.154446 -0.42356432 0.57521305 0.69980227 2.2 0 0 0
541 1 5.801859 20.034884 0.038761 -0.16086044 0.41588080 0.89507937 2.2 0 0 0
542 1 7.220764 21.509811 1.329056 -0.69248683 0.10889285 0.71316502 2.2 0 0 0
543 1 5.733602 20.144294 2.991494 0.20923675 0.04586145 0.97678898 2.2 0 0 0
544 1 7.184501 21.540151 4.189024 -0.47106470 0.70533812 0.52971330 2.2 0 0 0
545 1 5.585615 20.061447 5.784854 -0.23846861 0.69153647 0.68184312 2.2 0 0 0
546 1 7.215206 21.559085 7.159482 -0.17989966 -0.15147643 0.97195216 2.2 0 0 0
547 1 5.668472 20.095941 8.761651 -0.56803868 0.29921926 0.76668109 2.2 0 0 0
548 1 7.161354 21.410047 10.076036 0.04042228 0.23701924 0.97066365 2.2 0 0 0
549 1 5.591818 19.999199 11.445063 -0.04976414 0.95784308 0.28294906 2.2 0 0 0
550 1 7.111861 21.503280 12.800247 -0.14616839 -0.26732028 0.95245717 2.2 0 0 0
551 1 5.557692 19.953990 14.398195 -0.27285414 -0.22570117 0.93520565 2.2 0 0 0
552 1 7.155539 21.528659 15.766934 -0.01695870 -0.64927375 0.76036570 2.2 0 0 0
553 1 5.852877 20.032880 17.275511 0.20993116 -0.57232138 0.79270243 2.2 0 0 0
554 1 7.228671 21.617679 18.720058 -0.64015414 0.56400290 -0.52163532 2.2 0 0 0
555 1 5.806766 19.971204 20.076290 -0.31355368 0.41502780 0.85407026 2.2 0 0 0
556 1 7.125430 21.328396 21.570169 -0.24059189 0.37055333 0.89710968 2.2 0 0 0
557 1 5.684966 20.123070 22.955284 -0.65202845 -0.02738566 0.75769976 2.2 0 0 0
558 1 7.134544 21.660350 24.436021 0.28128407 -0.88349539 0.37458666 2.2 0 0 0
559 1 5.659553 20.120609 25.704609 0.31930039 0.23877748 0.91707828 2.2 0 0 0
560 1 7.033662 21.541547 27.183570 -0.38231837 -0.45967737 0.80157931 2.2 0 0 0
561 1 5.649967 22.963876 0.062053 0.10198365 0.11490772 0.98812730 2.2 0 0 0
562 1 7.150928 24.276677 1.414145 -0.44091430 -0.36065308 0.82190263 2.2 0 0 0
563 1 5.783803 22.894073 2.901558 -0.09839937 0.45824728 0.88336119 2.2 0 0 0
564 1 7.101252 24.410176 4.282155 -0.33714749 -0.05338434 0.93993706 2.2 0 0 0
565 1 5.761720 22.886331 5.709913 -0.58758337 0.50844763 0.62946548 2.2 0 0 0
566 1 7.014310 24.345630 7.102807 0.32836943 -0.26264302 0.90729938 2.2 0 0 0
567 1 5.714669 22.919959 8.674920 -0.30618059 -0.08973956 0.94773428 2.2 0 0 0
568 1 7.132131 24.337299 9.984162 -0.77056826 -0.58687596 0.24859841 2.2 0 0 0
569 1 5.690977 22.946711 11.510953 0.64318526 -0.45606933 0.61507194 2.2 0 0 0
570 1 7.153139 24.333328 13.099824 -0.51293559 -0.33703497 0.78949636 2.2 0 0 0
571 1 5.790583 22.894327 14.295910 -0.71903532 0.33375739 0.60958529 2.2 0 0 0
572 1 7.103532 24.316609 15.866139 -0.24374289 0.10230999 0.96442837 2.2 0 0 0
573 1 5.637156 22.892787 17.174981 -0.18101491 0.70930800 0.68126042 2.2 0 0 0
574 1 7.169001 24.371974 18.576343 -0.47637759 -0.87792767 0.04803541 2.2 0 0 0
575 1 5.621624 23.040375 20.093498 0.89742430 -0.16604173 0.40872945 2.2 0 0 0
576 1 7.203203 24.314514 21.405915 -0.11985710 0.67095252 0.73174926 2.2 0 0 0
577 1 5.656574 22.966086 22.767240 0.35878601 -0.63500981 0.68413094 2.2 0 0 0
578 1 7.160219 24.360737 24.490972 0.68927168 -0.04799426 0.72291154 2.2 0 0 0
579 1 5.658647 22.814082 25.859023 0.33287857 -0.24847127 0.90964492 2.2 0 0 0
580 1 7.230603 24.279050 27.177401 0.51119618 0.08003820 0.85572913 2.2 0 0 0
581 1 5.752606 25.781149 -0.001532 -0.06814980 -0.06723423 0.99540703 2.2 0 0 0
582 1 7.129270 27.340866 1.406337 0.30911166 -0.76231412 0.56861864 2.2 0 0 0
583 1 5.810878 25.711289 2.937637 -0.29624080 0.63743905 0.71127551 2.2 0 0 0
584 1 7.121623 27.299409 4.237880 -0.44066850 -0.18670080 0.87803991 2.2 0 0 0
585 1 5.797015 25.670536 5.762698 0.49191244 0.39580654 0.77547362 2.2 0 0 0
586 1 7.133051 27.231469 7.103314 0.16264855 -0.10193177 0.98140479 2.2 0 0 0
587 1 5.724823 25.730894 8.653095 0.21849788 0.82474080 0.52159495 2.2 0 0 0
588 1 7.039657 27.219760 10.059445 0.05085167 0.31974671 0.94613749 2.2 0 0 0
589 1 5.655400 25.874552 11.634916 -0.07028480 0.26728030 0.96105218 2.2 0 0 0
590 1 7.076731 27.162386 12.847027 0.13807726 -0.33996042 0.93024813 2.2 0 0 0
591 1 5.602234 25.924690 14.385359 -0.19380424 0.54327663 0.81687846 2.2 0 0 0
592 1 7.023735 27.211838 15.695118 0.08189540 -0.16408516 0.98304080 2.2 0 0 0
593 1 5.650468 25.730387 17.052789 0.17200587 -0.56519178 0.80682850 2.2 0 0 0
594 1 7.159354 27.313754 18.583317 0.10742177 -0.15413259 0.98219332 2.2 0 0 0
595 1 5.642445 25.847790 19.995351 0.06031602 -0.45600977 0.88792853 2.2 0 0 0
596 1 7.163880 27.261900 21.369489 0.05496481 0.84908679 0.52538604 2.2 0 0 0
597 1 5.686122 25.874135 22.941326 -0.21968974 0.37035421 0.90253763 2.2 0 0 0
598 1 7.202199 27.230156 24.397156 0.48671892 -0.48011647 0.72978961 2.2 0 0 0
599 1 5.764867 25.965265 25.742320 -0.75117344 0.48486929 0.44792882 2.2 0 0 0
600 1 7.233261 27.192444 27.181108 0.04347383 -0.50001089 0.86492724 2.2 0 0 0
601 1 8.608887 0.015337 0.017056 -0.28488392 0.19059267 0.93942301 2.2 0 0 0
602 1 10.104745 1.387090 1.433933 -0.53662593 -0.19467383 0.82105707 2.2 0 0 0
603 1 8.745656 0.001794 3.009818 -0.40350468 0.00502203 0.91496380 2.2 0 0 0
604 1 10.062348 1.522030 4.316224 -0.03219897 0.07083053 0.99696854 2.2 0 0 0
605 1 8.563242 -0.050488 5.691174 0.26534867 0.01827756 0.96397926 2.2 0 0 0
606 1 10.106006 1.408227 7.219546 -0.19787442 0.13747491 0.97053921 2.2 0 0 0
607 1 8.574303 -0.031443 8.662542 -0.55881207 -0.20003963 0.80480632 2.2 0 0 0
608 1 10.040571 1.545021 10.151129 -0.32278312 -0.29256398 0.90012075 2.2 0 0 0
609 1 8.662768 0.086279 11.389976 -0.62269912 0.46928297 0.62611445 2.2 0 0 0
610 1 10.054555 1.390422 12.792351 -0.49710226 -0.42045365 0.75901783 2.2 0 0 0
611 1 8.626723 -0.075428 14.235465 -0.56142516 -0.42278963 0.71137242 2.2 0 0 0
612 1 10.006189 1.524947 15.632978 -0.05268678 0.27796192 0.95914612 2.2 0 0 0
613 1 8.503903 0.090530 17.203979 -0.00761037 -0.49828261 0.86698127 2.2 0 0 0
614 1 10.007757 1.327817 18.598627 -0.25149842 0.02222302 0.96760254 2.2 0 0 0
615 1 8.520303 0.034902 19.988438 0.08319431 0.00386587 0.99652585 2.2 0 0 0
616 1 10.006340 1.428310 21.534594 0.73851144 -0.60259193 -0.30246292 2.2 0 0 0
617 1 8.574059 -0.008639 23.031759 -0.04057047 0.13529095 0.98997495 2.2 0 0 0
618 1 10.111704 1.308477 24.412692 -0.34145139 0.52336855 0.78070245 2.2 0 0 0
619 1 8.615005 0.139878 25.754671 0.25651838 -0.61977065 0.74167558 2.2 0 0 0
620 1 10.074367 1.377154 27.204804 -0.65906785 0.05459918 0.75009899 2.2 0 0 0
621 1 8.613241 2.922045 -0.061476 -0.18098522 -0.23963788 0.95384382 2.2 0 0 0
622 1 9.965025 4.330242 1.371033 0.48181435 0.18921163 0.85560148 2.2 0 0 0
623 1 8.617499 2.872200 2.985723 0.54728401 0.17441724 0.81857122 2.2 0 0 0
624 1 10.095362 4.184362 4.331695 0.71774540 0.33314230 0.61143908 2.2 0 0 0
625 1 8.628259 3.002759 5.674175 0.09039267 -0.36496712 0.92662191 2.2 0 0 0
626 1 10.035985 4.299228 7.222022 0.24521888 -0.27615944 0.92930279 2.2 0 0 0
627 1 8.530654 2.718344 8.622830 -0.84750470 -0.03971137 0.52930028 2.2 0 0 0
628 1 9.997001 4.268924 9.979891 -0.00674148 0.11734184 0.99306870 2.2 0 0 0
629 1 8.504447 2.801989 11.378026 0.31770036 -0.57655824 0.75275964 2.2 0 0 0
630 1 10.032836 4.165178 12.912045 0.48492688 0.87357863 0.04130731 2.2 0 0 0
631 1 8.701547 2.884487 14.490806 0.17843580 -0.14503159 0.97320425 2.2 0 0 0
632 1 10.155636 4.394867 15.670222 -0.53337959 -0.17133417 0.82834221 2.2 0 0 0
633 1 8.666298 2.968321 17.241676 -0.21438035 -0.01649029 0.97661105 2.2 0 0 0
634 1 10.004703 4.366365 18.670890 -0.58802811 -0.37962732 0.71421708 2.2 0 0 0
635 1 8.501454 2.894985 20.098992 -0.23177820 -0.05088074 0.97143709 2.2 0 0 0
636 1 10.061632 4.259591 21.525216 0.50820983 -0.23664536 0.82808317 2.2 0 0 0
637 1 8.582403 2.798866 22.906362 -0.04680579 0.46911124 0.88189787 2.2 0 0 0
638 1 10.035979 4.271724 24.402620 0.35131595 -0.49982664 0.79167571 2.2 0 0 0
639 1 8.599381 2.939685 25.846785 0.05512704 -0.73210511 0.67895737 2.2 0 0 0
640 1 10.156172 4.379192 27.328540 0.02122345 0.07809210 0.99672022 2.2 0 0 0
641 1 8.658082 5.708630 -0.042184 -0.44505950 0.62384653 0.64244654 2.2 0 0 0
642 1 10.077630 7.315518 1.540524 0.55084819 0.27838442 0.78680899 2.2 0 0 0
643 1 8.564159 5.768400 2.814944 0.52213270 -0.68833337 0.50356192 2.2 0 0 0
644 1 10.032605 7.284840 4.317544 -0.00043687 0.52108927 0.85350207 2.2 0 0 0
645 1 8.555847 5.798703 5.662532 0.57899603 -0.21308504 0.78699324 2.2 0 0 0
646 1 10.013326 7.154506 7.098647 0.13838004 -0.19773254 0.97043949 2.2 0 0 0
647 1 8.567450 5.634425 8.568652 -0.13472341 0.36542075 0.92104141 2.2 0 0 0
648 1 10.047114 7.192651 10.119179 -0.18005450 0.01336460 0.98356584 2.2 0 0 0
649 1 8.440142 5.699791 11.305849 -0.05255525 0.60191625 0.79682795 2.2 0 0 0
650 1 10.000994 7.243763 12.963909 0.32318327 -0.47114443 0.82071646 2.2 0 0 0
651 1 8.627259 5.704483 14.355108 -0.11598664 0.70056210 0.70410215 2.2 0 0 0
652 1 10.058278 7.174662 15.737475 0.26993492 0.68685889 0.67480368 2.2 0 0 0
653 1 8.761904 5.828700 17.205628 0.61451101 -0.69312609 0.37676576 2.2 0 0 0
654 1 9.964979 7.315332 18.536329 -0.75532183 0.29565728 0.58487238 2.2 0 0 0
655 1 8.578144 5.719581 19.993280 -0.42275808 0.30293633 0.85411075 2.2 0 0 0
656 1 9.916697 7.240159 21.437052 0.25678917 0.47592320 0.84116374 2.2 0 0 0
657 1 8.636512 5.768023 22.918981 0.13582145 0.94772372 0.28874260 2.2 0 0 0
658 1 10.065706 7.202605 24.279015 -0.35522858 0.83893358 0.41231433 2.2 0 0 0
659 1 8.710662 5.702468 25.756410 -0.02855840 -0.05916495 0.99783963 2.2 0 0 0
660 1 10.146690 7.159284 27.354834 -0.14264578 0.68448734 0.71493305 2.2 0 0 0
661 1 8.631642 8.580784 0.025117 0.05999954 -0.04860812 0.99701420 2.2 0 0 0
662 1 10.067748 10.099110 1.386011 -0.45407846 -0.37448422 0.80843944 2.2 0 0 0
663 1 8.543358 8.590006 2.966868 0.22460270 -0.37999384 0.89730614 2.2 0 0 0
664 1 10.069841 9.880911 4.292696 -0.46204282 -0.38933327 0.79682874 2.2 0 0 0
665 1 8.740058 8.689372 5.682748 -0.42295385 -0.01240046 0.90606637 2.2 0 0 0
666 1 10.035871 10.069811 7.109911 -0.47806024 0.09051697 0.87365043 2.2 0 0 0
667 1 8.488463 8.698671 8.623299 0.01815098 -0.41455057 0.90984524 2.2 0 0 0
668 1 10.150129 10.007115 10.099954 0.25872805 0.78254898 0.56628340 2.2 0 0 0
669 1 8.736391 8.699006 11.418138 0.50789139 -0.00338880 0.86141445 2.2 0 0 0
670 1 10.076297 9.951027 12.792274 0.07470459 -0.05963640 0.99542088 2.2 0 0 0
671 1 8.520325 8.599420 14.302759 -0.35784356 0.61150522 0.70569778 2.2 0 0 0
672 1 10.132887 10.070501 15.722547 -0.27873692 0.45908473 0.84353242 2.2 0 0 0
673 1 8.604843 8.611800 17.181065 -0.02130857 0.54157992 0.84037916 2.2 0 0 0
674 1 9.960653 10.149862 18.746720 0.43191439 0.17093507 0.88556827 2.2 0 0 0
675 1 8.567611 8.487832 20.056421 -0.15347564 -0.36674696 0.91757392 2.2 0 0 0
676 1 10.078512 10.142278 21.411340 -0.14089974 -0.95845703 0.24800682 2.2 0 0 0
677 1 8.538753 8.640506 22.905204 0.15062029 0.10037585 0.98348270 2.2 0 0 0
678 1 10.060952 10.055027 24.432775 0.32990575 -0.26755726 0.90530399 2.2 0 0 0
679 1 8.678922 8.675233 25.983013 0.04039820 -0.86862317 0.49382362 2.2 0 0 0
680 1 10.080890 10.043293 27.228487 0.36154692 0.29122361 0.88570460 2.2 0 0 0
681 1 8.574468 11.473188 -0.022873 0.00926642 0.29394420 0.95577766 2.2 0 0 0
682 1 10.147600 12.873321 1.318066 0.21782992 0.51715223 0.82770991 2.2 0 0 0
683 1 8.551914 11.554355 2.855280 0.19857056 -0.85829170 0.47318611 2.2 0 0 0
684 1 10.067519 12.974504 4.174785 -0.17106248 -0.61261456 0.77164826 2.2 0 0 0
685 1 8.728910 11.444548 5.752245 0.65194908 0.03359974 0.75751795 2.2 0 0 0
686 1 10.048545 12.940781 7.205387 -0.23079040 -0.11912949 0.96568315 2.2 0 0 0
687 1 8.546808 11.419752 8.641981 -0.35290165 0.88042384 0.31672431 2.2 0 0 0
688 1 9.955672 12.904437 10.072387 0.20013491 -0.16008149 0.96660226 2.2 0 0 0
689 1 8.685195 11.503239 11.374308 -0.04106568 0.09876413 0.99426317 2.2 0 0 0
690 1 10.135856 12.857628 12.870227 -0.58292344 -0.71444932 -0.38699151 2.2 0 0 0
691 1 8.707816 11.359969 14.271164 0.24313118 0.26578849 0.93286854 2.2 0 0 0
692 1 10.111167 12.872786 15.814547 -0.16199758 -0.70789684 0.68748734 2.2 0 0 0
693 1 8.505345 11.490569 17.168327 0.12942580 0.86478785 0.48517104 2.2 0 0 0
694 1 10.120148 12.896277 18.755527 -0.56928863 0.10533781 0.81536151 2.2 0 0 0
695 1 8.572348 11.408306 20.016541 0.55477489 -0.49471865 0.66893818 2.2 0 0 0
696 1 10.085614 12.939376 21.533859 0.03102131 -0.09680158 0.99482015 2.2 0 0 0
697 1 8.524493 11.386097 22.933183 -0.29437556 -0.08628459 0.95178674 2.2 0 0 0
698 1 9.963271 12.904839 24.319889 -0.56457721 0.45493389 0.68868551 2.2 0 0 0
699 1 8.485509 11.433324 25.717902 0.50346943 -0.47634812 0.72084049 2.2 0 0 0
700 1 9.979788 12.934322 27.235387 0.05600940 0.06138386 0.99654150 2.2 0 0 0
701 1 8.562695 14.242256 -0.036794 -0.20187611 -0.49564968 0.84473512 2.2 0 0 0
702 1 10.029791 15.835517 1.405270 -0.13974040 -0.45644430 0.87870997 2.2 0 0 0
703 1 8.529054 14.504937 2.888889 -0.05196086 0.24654598 0.96773713 2.2 0 0 0
704 1 10.015910 15.647879 4.314138 -0.51525825 -0.27310026 0.81235780 2.2 0 0 0
705 1 8.686618 14.248708 5.763040 -0.75106433 -0.63096629 -0.19438087 2.2 0 0 0
706 1 9.972580 15.728271 7.189606 0.43741018 -0.55992320 0.70367489 2.2 0 0 0
707 1 8.621140 14.308112 8.573159 0.40503294 -0.04776885 0.91305337 2.2 0 0 0
708 1 9.979734 15.727063 10.055968 0.45134516 -0.02087678 0.89210521 2.2 0 0 0
709 1 8.626684 14.361228 11.414496 -0.49579619 -0.44534660 0.74555519 2.2 0 0 0
710 1 9.972997 15.774706 12.729580 0.28910761 0.00963582 0.95724811 2.2 0 0 0
711 1 8.603587 14.336911 14.309328 0.00954008 -0.05183708 0.99860999 2.2 0 0 0
712 1 9.987144 15.830811 15.785927 0.09220513 0.45335576 0.88654767 2.2 0 0 0
713 1 8.703058 14.388797 17.121110 0.12782501 0.76205701 0.63476758 2.2 0 0 0
714 1 9.938665 15.724831 18.829602 -0.35262859 -0.63867796 0.68391779 2.2 0 0 0
715 1 8.517606 14.361876 20.030920 0.48795225 -0.53238029 0.69171803 2.2 0 0 0
716 1 10.025768 15.713177 21.520864 0.35241512 -0.26233787 0.89832201 2.2 0 0 0
717 1 8.590967 14.377412 22.898053 -0.33837790 -0.68811096 0.64187514 2.2 0 0 0
718 1 10.057816 15.790103 24.385449 0.76173350 -0.58213732 0.28439095 2.2 0 0 0
719 1 8.621141 14.360591 25.930855 0.24501900 0.13076102 0.96065980 2.2 0 0 0
720 1 9.920461 15.765116 27.366568 -0.20923292 0.12277208 0.97012814 2.2 0 0 0
721 1 8.632503 17.192547 0.048723 -0.20677251 -0.26847152 0.94083376 2.2 0 0 0
722 1 10.063972 18.686996 1.470199 0.24206848 -0.45281307 0.85811606 2.2 0 0 0
723 1 8.602753 17.222347 2.763658 0.21178670 -0.22959417 0.94996469 2.2 0 0 0
724 1 10.038491 18.542596 4.314706 0.16277626 -0.13934322 0.97677395 2.2 0 0 0
725 1 8.613647 17.183768 5.679645 0.08739307 0.26658408 0.95984133 2.2 0 0 0
726 1 9.995717 18.583541 7.136787 0.40915853 -0.16899983 0.89667628 2.2 0 0 0
727 1 8.574760 17.262726 8.580643 0.23567245 -0.32744062 0.91500882 2.2 0 0 0
728 1 10.112290 18.515448 9.944572 0.10525794 0.18176344 0.97769260 2.2 0 0 0
729 1 8.708059 17.227777 11.468951 -0.23197215 0.64698891 0.72635685 2.2 0 0 0
730 1 9.906598 18.770248 12.697773 0.32627894 -0.21040485 0.92155947 2.2 0 0 0
731 1 8.644835 17.154856 14.341756 -0.22101820 0.19287978 0.95600646 2.2 0 0 0
732 1 9.951636 18.664593 15.707177 0.27063804 0.11143333 0.95621005 2.2 0 0 0
733 1 8.563738 17.284855 17.262667 -0.34542142 0.17982135 0.92105826 2.2 0 0 0
734 1 10.099529 18.669373 18.667690 -0.44527244 0.05323578 0.89381117 2.2 0 0 0
735 1 8.585668 17.210267 20.055224 0.28465285 0.00310857 0.95862563 2.2 0 0 0
736 1 9.826083 18.534323 21.557602 0.83111014 -0.16208177 0.53196376 2.2 0 0 0
737 1 8.644020 17.193711 22.817151 0.76738388 0.46374467 0.44278986 2.2 0 0 0
738 1 10.039735 18.590804 24.399924 0.38465143 -0.70538128 0.59538267 2.2 0 0 0
739 1 8.636533 17.149290 25.877002 -0.79324804 -0.38895346 0.46847920 2.2 0 0 0
740 1 10.060096 18.615345 27.129434 -0.46356026 -0.76622136 0.44499069 2.2 0 0 0
741 1 8.597124 20.160604 0.039815 -0.04495917 -0.01554723 0.99886784 2.2 0 0 0
742 1 10.117567 21.390375 1.389490 0.20336114 -0.21162766 0.95595919 2.2 0 0 0
743 1 8.602383 19.955791 2.736035 -0.33931749 0.04660460 0.93951671 2.2 0 0 0
744 1 9.967847 21.418460 4.297365 -0.71808760 0.02865854 0.69536241 2.2 0 0 0
745 1 8.535750 20.158387 5.714333 -0.04082204 0.95030026 -0.30864703 2.2 0 0 0
746 1 9.964505 21.473176 7.220958 -0.54693592 -0.77306564 0.32129521 2.2 0 0 0
747 1 8.653733 20.070566 8.578115 0.56251641 0.16815379 0.80950577 2.2 0 0 0
748 1 10.092902 21.350701 10.177079 -0.26916539 0.45708159 0.84771836 2.2 0 0 0
749 1 8.519188 20.211501 11.436374 0.29504856 0.20263994 0.93374697 2.2 0 0 0
750 1 10.030562 21.527587 12.767655 0.26625896 -0.87754089 0.39878334 2.2 0 0 0
751 1 8.605627 19.993770 14.292882 0.07255570 0.99729920 -0.01140082 2.2 0 0 0
752 1 9.912311 21.459622 15.774232 -0.17907282 0.52346251 0.83301856 2.2 0 0 0
753 1 8.698276 20.074384 17.006950 0.74431102 -0.31836466 0.58706477 2.2 0 0 0
754 1 9.989810 21.467354 18.585763 0.19677004 0.46348112 0.86398310 2.2 0 0 0
755 1 8.700903 20.003803 20.040243 -0.02869707 -0.01153394 0.99952161 2.2 0 0 0
756 1 10.012760 21.592588 21.490051 -0.32502423 -0.14081548 0.93516322 2.2 0 0 0
757 1 8.547212 20.038323 22.942611 0.42248767 0.33075453 0.84386350 2.2 0 0 0
758 1 10.187261 21.486374 24.292829 -0.57445076 0.05591626 0.81662703 2.2 0 0 0
759 1 8.713464 20.073362 25.868165 -0.45803617 -0.65735783 0.59840083 2.2 0 0 0
760 1 9.906320 21.689609 27.238083 -0.84973354 -0.52633614 0.03038381 2.2 0 0 0
761 1 8.652580 22.981567 -0.023587 0.25812029 -0.58389209 0.76970380 2.2 0 0 0
762 1 10.056442 24.331528 1.499637 -0.03923305 0.02151902 0.99899835 2.2 0 0 0
763 1 8.532334 22.836322 2.891618 -0.09118852 0.02142046 0.99560324 2.2 0 0 0
764 1 10.070959 24.394373 4.398188 0.53847011 -0.51570186 0.66640943 2.2 0 0 0
765 1 8.549812 22.911353 5.810900 0.22522015 0.18544816 0.95649614 2.2 0 0 0
766 1 9.985598 24.261466 7.094972 -0.29953487 0.58291865 0.75530438 2.2 0 0 0
767 1 8.561829 22.958880 8.643306 -0.31952901 -0.17023835 0.93215885 2.2 0 0 0
768 1 10.089980 24.311104 9.994069 0.26838872 -0.30380373 0.91415031 2.2 0 0 0
769 1 8.516030 22.894829 11.413508 0.36892699 -0.22914189 0.90077015 2.2 0 0 0
770 1 10.138363 24.321089 12.757311 -0.27313228 -0.00585129 0.96195869 2.2 0 0 0
771 1 8.660808 22.936609 14.355927 -0.25194874 -0.84903212 0.46439884 2.2 0 0 0
772 1 9.976978 24.493170 15.777701 -0.01277579 -0.10210765 0.99469131 2.2 0 0 0
773 1 8.633622 22.983210 17.176830 -0.07594270 0.58914265 0.80445239 2.2 0 0 0
774 1 10.037641 24.449596 18.821592 0.45618437 0.43556951 0.77599937 2.2 0 0 0
775 1 8.545147 22.960390 20.082340 -0.43387788 0.38452154 0.81479640 2.2 0 0 0
776 1 9.949487 24.306711 21.471953 0.90366583 0.24683382 0.34994446 2.2 0 0 0
777 1 8.589267 22.920977 22.898691 0.43116691 -0.21319028 0.87672402 2.2 0 0 0
778 1 10.157184 24.396105 24.279724 0.36455211 0.08494243 0.92730068 2.2 0 0 0
779 1 8.615323 23.000952 25.879042 -0.31743206 0.82968040 0.45920293 2.2 0 0 0
780 1 9.949400 24.411832 27.331379 -0.43579262 -0.41828118 0.79694770 2.2 0 0 0
781 1 8.474388 25.893227 0.064625 0.34202922 0.07570756 0.93663460 2.2 0 0 0
782 1 10.044015 27.394942 1.428930 0.82696966 -0.40848922 0.38633889 2.2 0 0 0
783 1 8.630873 25.777940 2.955867 0.02871819 -0.37802299 0.92535068 2.2 0 0 0
784 1 10.017993 27.237392 4.339787 0.00085587 0.43315451 0.90131928 2.2 0 0 0
785 1 8.596913 25.773345 5.823257 -0.37765203 0.22894064 0.89719849 2.2 0 0 0
786 1 9.995576 27.150068 7.167489 -0.07593796 0.20224901 0.97638556 2.2 0 0 0
787 1 8.682842 25.822091 8.577229 -0.58988221 0.11143901 0.79976267 2.2 0 0 0
788 1 10.141449 27.272412 10.030549 0.44585251 0.18434360 0.87591836 2.2 0 0 0
789 1 8.508677 25.815958 11.336707 -0.56238719 0.14695663 0.81371027 2.2 0 0 0
790 1 9.977658 27.123461 12.971446 -0.01293076 0.71978016 0.69408163 2.2 0 0 0
791 1 8.608321 25.733805 14.382177 -0.32815376 0.15109690 0.93246171 2.2 0 0 0
792 1 10.011271 27.131370 15.758276 -0.75279053 -0.13017634 0.64526005 2.2 0 0 0
793 1 8.644254 25.705408 17.343762 -0.17320533 -0.31351281 0.93365392 2.2 0 0 0
794 1 10.082629 27.141302 18.662667 0.56762568 0.15908034 0.80777134 2.2 0 0 0
795 1 8.634433 25.814692 19.987829 -0.29506047 -0.24681894 0.92304915 2.2 0 0 0
796 1 9.904099 27.211600 21.470788 0.27870575 0.74501822 0.60602884 2.2 0 0 0
797 1 8.553134 25.801638 22.849954 -0.26391443 -0.37639857 0.88807279 2.2 0 0 0
798 1 10.001550 27.178269 24.371728 -0.24815166 -0.24470933 0.93730363 2.2 0 0 0
799 1 8.768737 25.796605 25.850187 0.57984476 0.21722326 0.78523507 2.2 0 0 0
800 1 9.915746 27.229204 27.242621 0.64447423 -0.27488582 0.71350596 2.2 0 0 0
801 1 11.454107 -0.061271 -0.024785 -0.17271886 -0.20931376 0.96247387 2.2 0 0 0
802 1 12.893173 1.373011 1.488599 -0.72806722 0.23171828 0.64515483 2.2 0 0 0
803 1 11.456358 0.118254 2.864408 0.27282827 -0.22310425 0.93583611 2.2 0 0 0
804 1 12.789942 1.455570 4.231261 0.59198859 0.16442589 0.78899533 2.2 0 0 0
805 1 11.405812 0.121731 5.560470 -0.61859810 -0.15709293 0.76984297 2.2 0 0 0
806 1 12.980098 1.345082 7.239548 0.12546825 -0.12865317 0.98372053 2.2 0 0 0
807 1 11.442189 0.116661 8.494872 -0.02354262 0.57740879 0.81611570 2.2 0 0 0
808 1 12.907060 1.331221 10.021666 -0.38980991 -0.28238982 0.87652965 2.2 0 0 0
809 1 11.421298 0.037953 11.428472 -0.13928175 0.13894054 0.98045710 2.2 0 0 0
810 1 12.913312 1.452323 12.903287 0.09357853 -0.09673754 0.99090106 2.2 0 0 0
811 1 11.474646 -0.099440 14.385760 -0.46522186 0.53768603 0.70318017 2.2 0 0 0
812 1 12.992419 1.312006 15.704287 0.07642775 0.30848710 0.94815321 2.2 0 0 0
813 1 11.505013 0.067058 17.198606 -0.02413043 -0.33531743 0.94179613 2.2 0 0 0
814 1 12.940273 1.455753 18.592536 0.66877275 -0.18241763 0.72074046 2.2 0 0 0
815 1 11.527548 0.007836 20.178457 0.12703601 0.25781717 0.95780591 2.2 0 0 0
816 1 12.953803 1.444893 21.500404 0.13618190 0.00249639 0.99068070 2.2 0 0 0
817 1 11.390170 -0.038159 22.907984 0.03121517 -0.12141089 0.99211139 2.2 0 0 0
818 1 12.804296 1.512874 24.340253 0.11694315 0.33723839 0.93412770 2.2 0 0 0
819 1 11.321471 -0.005969 25.872068 0.16410768 -0.89539577 0.41392643 2.2 0 0 0
820 1 12.949572 1.461761 27.137537 0.11882258 0.03265193 0.99237848 2.2 0 0 0
821 1 11.328266 2.933227 -0.027224 -0.05090155 0.44927228 0.89194364 2.2 0 0 0
822 1 12.778244 4.405289 1.466846 -0.36545996 -0.16151546 0.91670703 2.2 0 0 0
823 1 11.528508 2.912326 2.963983 -0.36777580 -0.42531181 0.82695273 2.2 0 0 0
824 1 12.905648 4.266492 4.317577 -0.32416878 -0.18590349 0.92755296 2.2 0 0 0
825 1 11.375215 2.650677 5.833702 0.53024600 0.47626039 0.70143796 2.2 0 0 0
826 1 12.902668 4.128993 7.223772 -0.17141768 -0.49586057 0.85131561 2.2 0 0 0
827 1 11.649746 2.848448 8.575030 0.54170532 0.19676944 0.81721303 2.2 0 0 0
828 1 13.026060 4.354584 9.988499 0.07421074 -0.24646124 0.96630721 2.2 0 0 0
829 1 11.603334 2.793581 11.463872 0.44661829 0.00812781 0.89468768 2.2 0 0 0
830 1 12.935829 4.202714 12.860084 -0.70112086 -0.42364241 0.57354742 2.2 0 0 0
831 1 11.395090 2.866805 14.299216 0.33185121 0.21897059 0.91756561 2.2 0 0 0
832 1 12.930627 4.342149 15.931862 0.25183449 -0.39836162 0.88197926 2.2 0 0 0
833 1 11.285608 2.892305 17.214651 0.38710995 -0.04057251 0.92114047 2.2 0 0 0
834 1 12.875090 4.323887 18.588387 -0.43101692 -0.12724154 0.89332749 2.2 0 0 0
835 1 11.479296 2.849021 20.016962 0.07432469 0.64450554 0.76097862 2.2 0 0 0
836 1 12.827792 4.161897 21.511504 0.45539666 0.24923598 0.85469018 2.2 0 0 0
837 1 11.506081 2.727308 22.945551 -0.23358521 0.63633997 0.73519344 2.2 0 0 0
838 1 12.947923 4.304427 24.349187 -0.08057031 0.09798262 0.99192128 2.2 0 0 0
839 1 11.362223 2.902584 25.710907 -0.62918871 0.27732558 0.72609372 2.2 0 0 0
840 1 12.963638 4.310692 27.273625 0.28545092 0.29969325 0.91033056 2.2 0 0 0
841 1 11.462088 5.777589 -0.091177 -0.14098849 0.87416196 0.46471832 2.2 0 0 0
842 1 12.968174 7.234587 1.424280 0.23349582 -0.09040784 0.96814571 2.2 0 0 0
843 1 11.498659 5.783265 2.843743 -0.72049380 -0.67462378 0.16053488 2.2 0 0 0
844 1 13.037054 7.143348 4.259841 0.10265384 0.24930738 0.96296834 2.2 0 0 0
845 1 11.431021 5.707997 5.746981 0.50470617 0.25825606 0.82375694 2.2 0 0 0
846 1 12.916143 7.258610 7.191660 0.03006161 0.62116134 0.78310592 2.2 0 0 0
847 1 11.527216 5.624048 8.563859 0.17196804 0.30307005 0.93732360 2.2 0 0 0
848 1 13.019922 7.228132 10.024705 0.06022309 -0.08663452 0.99441824 2.2 0 0 0
849 1 11.471321 5.671777 11.461011 0.06113808 -0.45435484 0.88872032 2.2 0 0 0
850 1 12.900104 7.174980 12.900026 -0.14146923 -0.60063877 0.78690503 2.2 0 0 0
851 1 11.470027 5.776571 14.255325 -0.00756665 -0.05680739 0.99835648 2.2 0 0 0
852 1 12.914800 7.174807 15.686305 0.08919357 -0.51956733 0.84976132 2.2 0 0 0
853 1 11.573582 5.772259 17.246252 -0.38925205 -0.29172091 0.87371720 2.2 0 0 0
854 1 12.899003 7.185095 18.674155 -0.06769461 0.27092710 0.96021661 2.2 0 0 0
855 1 11.518016 5.863216 20.026189 0.88804219 -0.03770557 0.45821323 2.2 0 0 0
856 1 12.945065 7.102726 21.527123 0.74907881 -0.16263333 0.64220817 2.2 0 0 0
857 1 11.420569 5.755496 22.967362 -0.28856234 -0.38906497 0.87484869 2.2 0 0 0
858 1 12.804510 7.085216 24.309105 -0.60653452 0.41604070 0.67751459 2.2 0 0 0
859 1 11.492654 5.733036 25.807324 -0.31960298 -0.00759919 0.94752107 2.2 0 0 0
860 1 12.949282 7.122672 27.380175 -0.41292747 -0.54630669 0.72872485 2.2 0 0 0
861 1 11.528867 8.548710 0.074899 -0.17919082 -0.04080998 0.98296755 2.2 0 0 0
862 1 12.903140 10.018041 1.493791 0.91786752 -0.36120548 0.16446825 2.2 0 0 0
863 1 11.449369 8.587303 2.920328 0.18607203 -0.17959576 0.96598269 2.2 0 0 0
864 1 12.897672 10.072179 4.233623 -0.18210513 -0.51812597 0.83569324 2.2 0 0 0
865 1 11.392955 8.624908 5.714201 0.03786294 -0.62294847 0.78134602 2.2 0 0 0
866 1 12.892064 10.122219 7.151943 0.03511891 -0.40980325 0.91149765 2.2 0 0 0
867 1 11.506118 8.715295 8.465156 -0.42212947 -0.73096741 0.53618408 2.2 0 0 0
868 1 12.887806 9.993089 10.079353 0.01874401 -0.34954732 0.93673119 2.2 0 0 0
869 1 11.489371 8.594667 11.407598 0.32581809 0.55806022 0.76315881 2.2 0 0 0
870 1 13.038689 10.037362 12.978137 -0.71270422 -0.12023006 0.69108424 2.2 0 0 0
871 1 11.435140 8.571222 14.371527 -0.30390202 0.87519858 0.37639210 2.2 0 0 0
872 1 12.836629 10.041020 15.812008 -0.19284146 0.31124103 0.93055961 2.2 0 0 0
873 1 11.333448 8.661788 17.198404 0.16439713 0.34614227 0.92366613 2.2 0 0 0
874 1 12.818854 9.995603 18.604813 -0.05049679 -0.33363479 0.94134898 2.2 0 0 0
875 1 11.547929 8.495080 20.206160 -0.49162519 0.41484347 0.76564324 2.2 0 0 0
876 1 12.899957 10.042090 21.485882 0.91633470 -0.07354787 0.39360058 2.2 0 0 0
877 1 11.400552 8.628305 22.801766 0.18195235 0.72474914 0.66455401 2.2 0 0 0
878 1 12.936536 10.085351 24.376021 -0.42752853 -0.68922335 0.58497053 2.2 0 0 0
879 1 11.383010 8.667152 25.924592 -0.14590496 -0.40548570 0.90238190 2.2 0 0 0
880 1 12.789701 10.014081 27.316138 -0.36664322 -0.80592357 0.46482248 2.2 0 0 0
881 1 11.485772 11.438604 -0.070445 0.21559712 0.27328835 0.93746006 2.2 0 0 0
882 1 12.920031 12.809206 1.449119 0.39725183 -0.57515017 0.71511765 2.2 0 0 0
883 1 11.522501 11.452002 2.862251 -0.04042772 0.08060604 0.99592583 2.2 0 0 0
884 1 12.963182 12.819161 4.203107 -0.05011540 -0.41395106 0.90891857 2.2 0 0 0
885 1 11.506941 11.470208 5.701332 0.59129422 -0.06367544 0.80393818 2.2 0 0 0
886 1 12.765723 12.892933 6.976964 -0.06932603 -0.14610437 0.98683708 2.2 0 0 0
887 1 11.509751 11.503051 8.639192 0.11957729 -0.91253475 0.39112862 2.2 0 0 0
888 1 12.977204 12.936757 10.096141 0.32608598 -0.09141825 0.94090947 2.2 0 0 0
889 1 11.445970 11.461711 11.527419 -0.09644042 0.55219508 0.82811825 2.2 0 0 0
890 1 12.818996 12.943133 12.890318 -0.68054770 -0.20703137 0.70284624 2.2 0 0 0
891 1 11.532176 11.419005 14.274380 0.47076902 0.00536396 0.88224019 2.2 0 0 0
892 1 12.877936 12.986470 15.754068 0.45737519 -0.00482718 0.88926072 2.2 0 0 0
893 1 11.474174 11.433344 17.176361 0.38545928 -0.31555669 0.86709003 2.2 0 0 0
894 1 12.920146 12.840849 18.644989 0.37120568 0.66147485 0.65165740 2.2 0 0 0
895 1 11.445025 11.497465 20.100122 0.86106749 0.10708909 0.49708621 2.2 0 0 0
896 1 12.852716 12.867566 21.460923 -0.12005755 -0.25920862 0.95833036 2.2 0 0 0
897 1 11.440278 11.490959 22.854210 0.17269726 0.02353624 0.98469371 2.2 0 0 0
898 1 12.845051 12.872945 24.451474 -0.32105476 -0.08435066 0.94329677 2.2 0 0 0
899 1 11.521071 11.523794 25.900786 -0.34867137 -0.31493215 0.88274912 2.2 0 0 0
900 1 12.878603 12.859644 27.341445 -0.42245384 -0.60631710 0.67373016 2.2 0 0 0
901 1 11.507847 14.369567 0.054437 0.43083413 -0.87916791 0.20358229 2.2 0 0 0
902 1 12.916316 15.757807 1.347268 0.04176278 0.31548875 0.94800987 2.2 0 0 0
903 1 11.496267 14.354837 2.836949 0.21000676 0.16241080 0.96411612 2.2 0 0 0
904 1 12.878396 15.684646 4.313711 0.80686469 -0.01543029 0.59053474 2.2 0 0 0
905 1 11.426890 14.406197 5.749389 0.38670578 0.20113990 0.90000077 2.2 0 0 0
906 1 12.875437 15.772299 7.258319 -0.78442129 -0.00577448 0.62020149 2.2 0 0 0
907 1 11.449709 14.316226 8.681086 0.09622424 0.30961646 0.94598020 2.2 0 0 0
908 1 12.812098 15.831034 10.075460 -0.64747585 0.07472288 0.75841382 2.2 0 0 0
909 1 11.543781 14.340683 11.414872 0.00584421 -0.86513079 0.50151227 2.2 0 0 0
910 1 12.769939 15.641776 12.880608 -0.14049082 0.17342789 0.97477438 2.2 0 0 0
911 1 11.448555 14.312904 14.350012 0.68160994 -0.10505911 0.72413429 2.2 0 0 0
912 1 12.880671 15.688675 15.702608 0.06191771 0.30209859 0.95126370 2.2 0 0 0
913 1 11.526122 14.346937 17.227803 0.29682507 -0.91127295 0.28544088 2.2 0 0 0
914 1 12.871983 15.774382 18.703692 -0.28976669 0.08929964 0.95292226 2.2 0 0 0
915 1 11.524464 14.375555 20.186507 0.17389327 0.47384790 0.86326665 2.2 0 0 0
916 1 12.974390 15.776137 21.442273 0.02486326 0.08648506 0.99594285 2.2 0 0 0
917 1 11.448127 14.296952 22.935409 0.11107047 0.40257401 0.90862397 2.2 0 0 0
918 1 12.918881 15.774460 24.488206 -0.04870857 0.14139254 0.98875458 2.2 0 0 0
919 1 11.437326 14.191511 25.688321 0.10984938 -0.32590523 0.93899888 2.2 0 0 0
920 1 12.962851 15.764983 27.259395 0.30141371 0.47588075 0.82624892 2.2 0 0 0
921 1 11.459050 17.393942 -0.008307 0.55958270 -0.37202751 0.74058270 2.2 0 0 0
922 1 12.824360 18.540335 1.438949 -0.21457368 -0.17405051 0.96107469 2.2 0 0 0
923 1 11.482520 17.204188 2.860813 0.70816289 0.02649320 0.70555187 2.2 0 0 0
924 1 12.886629 18.594330 4.369896 -0.52006536 0.29177107 0.80274633 2.2 0 0 0
925 1 11.449304 17.296167 5.824114 0.93840396 -0.02588940 0.34456892 2.2 0 0 0
926 1 12.939164 18.687596 7.168319 0.24274993 0.52652995 0.81476296 2.2 0 0 0
927 1 11.456849 17.218530 8.519822 -0.08634314 0.40093177 0.91202992 2.2 0 0 0
928 1 12.851658 18.636392 10.046113 -0.16225266 0.31117834 0.93639848 2.2 0 0 0
929 1 11.409835 17.269839 11.439472 -0.11607549 -0.09924214 0.98826994 2.2 0 0 0
930 1 12.841286 18.611641 12.915860 -0.37508830 -0.00074962 0.92698878 2.2 0 0 0
931 1 11.425583 17.223811 14.289440 0.36286621 0.16973075 0.91625302 2.2 0 0 0
932 1 12.938635 18.743373 15.807574 -0.23683312 -0.45388093 0.85901232 2.2 0 0 0
933 1 11.375335 17.188482 17.161276 -0.49932189 0.00472295 0.86640368 2.2 0 0 0
934 1 12.906675 18.693699 18.723274 0.36489128 0.00115322 0.93104942 2.2 0 0 0
935 1 11.374620 17.062683 20.089488 0.23343707 -0.15991313 0.95913238 2.2 0 0 0
936 1 12.875584 18.720366 21.353232 0.76599485 0.42538510 0.48197448 2.2 0 0 0
937 1 11.423778 17.338016 23.003701 -0.72631120 -0.24943906 0.64050933 2.2 0 0 0
938 1 12.928127 18.560076 24.407513 0.98761579 -0.15308618 -0.03434631 2.2 0 0 0
939 1 11.578384 17.278675 25.679957 -0.79512615 -0.18762918 0.57668856 2.2 0 0 0
940 1 12.851713 18.759182 27.292992 0.60291841 -0.19581972 0.77339771 2.2 0 0 0
941 1 11.539501 20.093121 -0.005235 -0.52911020 0.22987310 0.81682358 2.2 0 0 0
942 1 12.873635 21.524203 1.433824 0.27889238 -0.51411111 0.81111578 2.2 0 0 0
943 1 11.447416 20.019245 2.827922 0.80924454 -0.29692929 0.50690854 2.2 0 0 0
944 1 12.902296 21.539202 4.349434 0.34436322 -0.00465355 0.93882496 2.2 0 0 0
945 1 11.344770 20.107216 5.756980 -0.34716869 0.25541407 0.90235113 2.2 0 0 0
946 1 12.939115 21.474254 7.106298 0.19847518 0.62417410 0.75565488 2.2 0 0 0
947 1 11.441917 20.193243 8.661207 0.63897496 -0.01833223 0.76900905 2.2 0 0 0
948 1 12.825517 21.494706 10.107921 -0.26168040 -0.21838487 0.94012308 2.2 0 0 0
949 1 11.415160 20.101858 11.557793 -0.14157057 0.22760247 0.96340795 2.2 0 0 0
950 1 12.934859 21.539407 12.903107 0.15143508 -0.25404433 0.95526378 2.2 0 0 0
951 1 11.483509 20.073489 14.315381 0.18321938 -0.65886245 0.72961012 2.2 0 0 0
952 1 12.846002 21.388087 15.806782 -0.57772584 0.03219827 0.81559557 2.2 0 0 0
953 1 11.471051 20.057360 17.141395 -0.57781993 -0.04091821 0.81513792 2.2 0 0 0
954 1 12.889297 21.472302 18.726300 -0.54287557 0.37417420 0.75185091 2.2 0 0 0
955 1 11.399501 20.108570 20.137967 0.03378247 -0.06010237 0.99762039 2.2 0 0 0
956 1 12.878102 21.507385 21.558729 0.48091938 -0.16149214 0.86176380 2.2 0 0 0
957 1 11.327926 20.047095 22.960442 0.37313784 0.15085624 0.91542916 2.2 0 0 0
958 1 12.901854 21.469507 24.249311 -0.44223374 0.38174788 0.81160204 2.2 0 0 0
959 1 11.473548 20.096546 25.761440 0.17909491 -0.15257769 0.97192853 2.2 0 0 0
960 1 12.918921 21.424041 27.221248 0.47803224 -0.10770500 0.87171372 2.2 0 0 0
961 1 11.525415 23.026854 -0.024058 -0.27885652 -0.03404859 0.95972899 2.2 0 0 0
962 1 12.933697 24.388733 1.373959 -0.22383669 0.20909959 0.95193198 2.2 0 0 0
963 1 11.600286 22.948389 2.841340 0.31301652 -0.14569148 0.93850661 2.2 0 0 0
964 1 12.956929 24.433151 4.364657 0.54690532 0.05633534 0.83529689 2.2 0 0 0
965 1 11.458575 23.011889 5.786739 0.96837885 -0.22300902 0.11184535 2.2 0 0 0
966 1 12.890971 24.357940 7.095740 0.06104020 -0.54118542 0.83868494 2.2 0 0 0
967 1 11.568139 22.958211 8.565441 -0.64653063 0.07744515 0.75894690 2.2 0 0 0
968 1 12.988847 24.387067 10.006042 -0.61764044 0.27170498 0.73803570 2.2 0 0 0
969 1 11.634541 22.901997 11.419337 0.61172576 0.45958918 0.64387062 2.2 0 0 0
970 1 12.890123 24.479339 12.960053 -0.54983362 -0.81136908 0.19840162 2.2 0 0 0
971 1 11.426454 22.998013 14.251289 0.38876295 -0.16566626 0.90632117 2.2 0 0 0
972 1 12.848490 24.355272 15.763046 -0.17503309 -0.22323291 0.95892152 2.2 0 0 0
973 1 11.427587 22.851938 17.089038 -0.73098083 0.61821327 0.28892799 2.2 0 0 0
974 1 12.882669 24.274895 18.592633 -0.82690819 -0.14487924 0.54335334 2.2 0 0 0
975 1 11.444007 22.933104 20.082048 0.67295890 -0.58593151 0.45145387 2.2 0 0 0
976 1 12.851764 24.357999 21.438862 -0.24024409 0.14263996 0.96017531 2.2 0 0 0
977 1 11.319273 22.873434 22.928316 0.65552148 -0.63266498 0.41234284 2.2 0 0 0
978 1 12.889978 24.389478 24.461260 -0.04127249 -0.03981227 0.99835443 2.2 0 0 0
979 1 11.454591 22.878850 25.792774 0.46918642 -0.30087848 0.83026276 2.2 0 0 0
980 1 12.947637 24.323485 27.162157 -0.21835219 -0.06796254 0.97350060 2.2 0 0 0
981 1 11.577159 25.726142 -0.009245 0.12675838 0.79127097 0.59818271 2.2 0 0 0
982 1 12.891008 27.356825 1.413995 -0.49603291 0.53193430 0.68629240 2.2 0 0 0
983 1 11.486003 25.846815 2.811717 0.53281564 -0.49165633 0.68875362 2.2 0 0 0
984 1 12.952153 27.245937 4.277597 0.39306050 -0.08876431 0.91521819 2.2 0 0 0
985 1 11.472867 25.825637 5.865727 -0.02449117 0.07962352 0.99652410 2.2 0 0 0
986 1 12.895674 27.172169 7.151788 0.88360943 0.23453602 0.40524958 2.2 0 0 0
987 1 11.442313 25.727112 8.634842 0.69768839 -0.28661704 0.65656803 2.2 0 0 0
988 1 12.961083 27.157652 10.136197 0.11541113 -0.16572306 0.97939580 2.2 0 0 0
989 1 11.404411 25.837967 11.419459 0.27845157 -0.71323633 0.64324074 2.2 0 0 0
990 1 12.858280 27.185356 12.936514 -0.40653673 -0.20162538 0.89110891 2.2 0 0 0
991 1 11.450249 25.662875 14.338764 -0.32224462 0.22513403 0.91949610 2.2 0 0 0
992 1 12.955274 27.240113 15.772447 0.37981103 -0.09408021 0.92026762 2.2 0 0 0
993 1 11.379320 25.715524 17.174251 0.29111857 -0.93695598 0.19329634 2.2 0 0 0
994 1 12.956016 27.223783 18.593624 -0.18311930 -0.13535709 0.97372778 2.2 0 0 0
995 1 11.497023 25.826865 19.973194 0.07628392 -0.25264608 0.96454690 2.2 0 0 0
996 1 12.844624 27.251059 21.614516 -0.00049903 0.03226874 0.99947910 2.2 0 0 0
997 1 11.393676 25.899502 22.995045 0.38497558 -0.56736698 0.72793442 2.2 0 0 0
998 1 12.845087 27.248618 24.325826 0.02903538 -0.47720280 0.87831340 2.2 0 0 0
999 1 11.475855 25.854318 25.765381 -0.25799856 0.47612453 0.84067959 2.2 0 0 0
1000 1 12.993379 27.130823 27.303217 -0.02689985 0.15661110 0.98729396 2.2 0 0 0
1001 1 14.223473 -0.104928 0.114291 -0.30618184 0.22367069 0.92532378 2.2 0 0 0
1002 1 15.769754 1.397737 1.384915 0.17298614 -0.22677021 0.95846287 2.2 0 0 0
1003 1 14.324292 -0.029911 2.884486 -0.07186094 0.08579554 0.99371783 2.2 0 0 0
1004 1 15.780226 1.555426 4.275747 -0.05295319 -0.06829912 0.99625860 2.2 0 0 0
1005 1 14.287023 -0.002009 5.667720 0.07896594 0.35129711 0.93292804 2.2 0 0 0
1006 1 15.785837 1.430319 7.213875 0.14072324 0.13504073 0.98079609 2.2 0 0 0
1007 1 14.305724 -0.003258 8.554579 0.18226131 -0.27680256 0.94348352 2.2 0 0 0
1008 1 15.763002 1.459539 9.976294 -0.04826057 0.18489400 0.98157278 2.2 0 0 0
1009 1 14.497590 0.226916 11.431584 0.67323044 0.17507886 0.71840669 2.2 0 0 0
1010 1 15.642248 1.400342 12.892226 -0.22610456 -0.50830793 0.83096316 2.2 0 0 0
1011 1 14.327169 0.052873 14.337185 -0.42049554 -0.38454927 0.82176965 2.2 0 0 0
1012 1 15.780179 1.335305 15.789407 -0.33684828 -0.77047510 0.54120362 2.2 0 0 0
1013 1 14.355048 -0.025821 17.237592 0.06508759 -0.25513909 0.96471118 2.2 0 0 0
1014 1 15.780303 1.584331 18.573239 -0.40536892 0.01658461 0.91400273 2.2 0 0 0
1015 1 14.241252 0.087318 20.111841 0.07619187 -0.02723583 0.99672113 2.2 0 0 0
1016 1 15.697962 1.374064 21.584983 -0.11566303 -0.47298532 0.87344545 2.2 0 0 0
1017 1 14.320353 -0.019709 22.831989 -0.52072883 -0.54695756 0.65549898 2.2 0 0 0
1018 1 15.745393 1.397160 24.373690 0.34810552 -0.28910632 0.89176235 2.2 0 0 0
1019 1 14.381346 0.049572 25.581912 -0.33442295 0.30303930 0.89237238 2.2 0 0 0
1020 1 15.879707 1.397644 27.173091 -0.20790965 0.21450035 0.95433913 2.2 0 0 0
1021 1 14.375145 2.806823 -0.059517 -0.20766255 -0.08120584 0.97482402 2.2 0 0 0
1022 1 15.568335 4.391391 1.322439 -0.38786051 -0.15375788 0.90880292 2.2 0 0 0
1023 1 14.366658 3.018600 2.869353 -0.58419971 0.12343151 0.80216916 2.2 0 0 0
1024 1 15.718233 4.275860 4.269283 0.35125876 -0.35192514 0.86762087 2.2 0 0 0
1025 1 14.380066 2.844725 5.607242 0.17044585 -0.23995468 0.95570391 2.2 0 0 0
1026 1 15.734850 4.191155 7.092109 -0.09734217 0.19565259 0.97583019 2.2 0 0 0
1027 1 14.299714 2.941874 8.496679 -0.01950452 0.20066635 0.97946546 2.2 0 0 0
1028 1 15.758742 4.295578 10.044758 0.33894576 0.34163697 0.87658425 2.2 0 0 0
1029 1 14.393900 2.934834 11.433941 -0.53512773 0.19264416 0.82251233 2.2 0 0 0
1030 1 15.884289 4.264997 12.800343 -0.03920301 0.52840631 0.84808602 2.2 0 0 0
1031 1 14.309763 2.811815 14.269755 0.23851157 0.58737482 0.77337123 2.2 0 0 0
1032 1 15.728781 4.200055 15.802785 -0.43746286 -0.36762226 0.82065835 2.2 0 0 0
1033 1 14.341961 2.813814 17.226864 0.12840989 -0.35640893 0.92546398 2.2 0 0 0
1034 1 15.743205 4.236780 18.676991 -0.09796916 -0.12308442 0.98754862 2.2 0 0 0
1035 1 14.462370 2.968596 19.987438 -0.09509620 -0.03660214 0.99479495 2.2 0 0 0
1036 1 15.747131 4.154342 21.429239 -0.61577751 0.34482854 0.70845701 2.2 0 0 0
1037 1 14.375080 2.886599 23.000797 0.73048470 0.11979665 0.67233984 2.2 0 0 0
1038 1 15.733762 4.226691 24.403243 0.21186062 -0.52774535 0.82255694 2.2 0 0 0
1039 1 14.285622 2.877381 25.777556 0.00481049 -0.12241766 0.99246702 2.2 0 0 0
1040 1 15.650257 4.221833 27.164062 -0.48983559 0.41465950 0.76688890 2.2 0 0 0
1041 1 14.372412 5.731703 0.077302 -0.52874142 0.47425384 0.70392883 2.2 0 0 0
1042 1 15.691551 7.217120 1.239228 0.09113401 -0.05367042 0.99439131 2.2 0 0 0
1043 1 14.153529 5.696611 2.924746 0.02790343 0.75411293 0.65615173 2.2 0 0 0
1044 1 15.798675 7.174038 4.398938 0.23428122 -0.26092277 0.93649966 2.2 0 0 0
1045 1 14.282724 5.759155 5.834338 0.46674065 0.19366277 0.86292983 2.2 0 0 0
1046 1 15.655752 7.123273 7.208465 0.26761856 0.25358656 0.92955589 2.2 0 0 0
1047 1 14.347783 5.711124 8.572079 0.03184247 0.14137634 0.98944368 2.2 0 0 0
1048 1 15.773935 7.135374 10.115554 0.24832016 -0.22365717 0.94250441 2.2 0 0 0
1049 1 14.295906 5.724578 11.311101 0.14764744 -0.38452811 0.91122904 2.2 0 0 0
1050 1 15.734652 7.161783 12.934591 -0.33203795 0.20600281 0.92049641 2.2 0 0 0
1051 1 14.406948 5.898428 14.383320 0.36055963 -0.37765921 0.85286005 2.2 0 0 0
1052 1 15.918504 7.324235 15.832267 -0.01530698 0.31086585 0.95033053 2.2 0 0 0
1053 1 14.317013 5.650542 17.078606 0.40629240 0.16726308 0.89830371 2.2 0 0 0
1054 1 15.841388 7.102728 18.606137 0.38546415 0.25558643 0.88661884 2.2 0 0 0
1055 1 14.336484 5.837306 20.089369 0.16012511 -0.25322482 0.95406349 2.2 0 0 0
1056 1 15.889148 7.238100 21.549981 0.57178777 -0.26401021 0.77676081 2.2 0 0 0
1057 1 14.215583 5.809960 22.865167 -0.68051585 0.12277756 0.72237376 2.2 0 0 0
1058 1 15.745359 7.156175 24.275681 0.20994936 0.61518507 0.75991355 2.2 0 0 0
1059 1 14.420983 5.824890 25.746414 0.43566434 -0.44883419 0.78022077 2.2 0 0 0
1060 1 15.777866 7.236896 27.403810 0.92035052 0.05872466 0.38666049 2.2 0 0 0
1061 1 14.328688 8.643781 -0.076281 -0.37870286 -0.69370490 0.61266439 2.2 0 0 0
1062 1 15.792951 10.066446 1.501607 -0.67889433 -0.09325354 0.72828996 2.2 0 0 0
1063 1 14.385921 8.558040 2.811093 -0.49246811 -0.35341637 0.79534397 2.2 0 0 0
1064 1 15.791732 9.925709 4.271593 -0.04616815 -0.50154788 0.86389712 2.2 0 0 0
1065 1 14.273767 8.683288 5.690026 0.82305499 0.03031068 0.56715231 2.2 0 0 0
1066 1 15.812271 10.016154 7.121416 -0.07314316 0.13014814 0.98879297 2.2 0 0 0
1067 1 14.430098 8.617902 8.648985 0.00186583 -0.22079768 0.97531785 2.2 0 0 0
1068 1 15.787220 10.179610 10.091930 0.54567371 -0.54639369 0.63536929 2.2 0 0 0
1069 1 14.242571 8.677621 11.417472 -0.30904768 0.14475636 0.93996549 2.2 0 0 0
1070 1 15.685699 10.066569 12.856498 0.04481112 0.58506382 0.80974829 2.2 0 0 0
1071 1 14.284676 8.569354 14.391338 0.60817704 -0.73443259 0.30121332 2.2 0 0 0
1072 1 15.634112 10.066922 15.766830 -0.27611288 0.65832030 0.70026856 2.2 0 0 0
1073 1 14.353070 8.501896 17.163638 -0.26086456 0.03474414 0.96474998 2.2 0 0 0
1074 1 15.802556 9.933855 18.596057 0.51365424 -0.46909566 0.71840697 2.2 0 0 0
1075 1 14.433889 8.753206 20.072703 -0.21328468 0.02223174 0.97673712 2.2 0 0 0
1076 1 15.838861 10.012417 21.525995 0.71964506 0.01162857 0.69424474 2.2 0 0 0
1077 1 14.332859 8.684073 22.968961 -0.24293498 0.64103087 0.72805358 2.2 0 0 0
1078 1 15.798646 9.951734 24.331054 0.24766252 0.19431202 0.94916074 2.2 0 0 0
1079 1 14.249320 8.652208 25.791074 0.46442931 0.77578580 0.42715548 2.2 0 0 0
1080 1 15.675724 10.113565 27.309082 -0.17125418 -0.37541323 0.91089896 2.2 0 0 0
1081 1 14.236292 11.623296 -0.199206 -0.15739858 0.56392030 0.81069081 2.2 0 0 0
1082 1 15.774306 12.957332 1.414719 -0.75445816 -0.52995754 -0.38721814 2.2 0 0 0
1083 1 14.273328 11.459326 2.846985 0.39480177 0.27974462 0.87514257 2.2 0 0 0
1084 1 15.821063 12.869580 4.258899 0.09005682 -0.09304245 0.99158100 2.2 0 0 0
1085 1 14.436543 11.502007 5.761563 -0.40537936 0.33769797 0.84948670 2.2 0 0 0
1086 1 15.751781 12.941927 7.293783 0.24410307 0.64437343 0.72470447 2.2 0 0 0
1087 1 14.215476 11.414516 8.577510 0.07392397 -0.02070362 0.99704895 2.2 0 0 0
1088 1 15.829931 12.912600 10.025592 0.53673324 0.28802028 0.79307108 2.2 0 0 0
1089 1 14.356400 11.368013 11.367591 -0.01085487 -0.02762650 0.99955938 2.2 0 0 0
1090 1 15.880175 12.930401 12.879047 -0.90060640 0.02721287 0.43378287 2.2 0 0 0
1091 1 14.355501 11.411317 14.275974 -0.12377459 0.74717970 0.65299490 2.2 0 0 0
1092 1 15.876207 12.976032 15.637219 -0.29738474 -0.83207441 0.46820347 2.2 0 0 0
1093 1 14.376785 11.459148 17.196464 0.11949508 0.47916676 0.86955169 2.2 0 0 0
1094 1 15.768643 12.939441 18.650176 0.60942388 0.75198318 0.25124454 2.2 0 0 0
1095 1 14.289094 11.443812 20.044171 0.00314418 -0.06989185 0.99754962 2.2 0 0 0
1096 1 15.723495 12.914769 21.517060 0.68127829 -0.11888446 0.72230629 2.2 0 0 0
1097 1 14.245540 11.484596 22.912489 -0.09715747 0.80966074 0.57880041 2.2 0 0 0
1098 1 15.878115 12.910489 24.413062 0.06046680 0.16729206 0.98405139 2.2 0 0 0
1099 1 14.376407 11.429670 25.789541 0.29599224 -0.95137113 0.08533211 2.2 0 0 0
1100 1 15.795555 12.911377 27.123468 0.15954043 -0.28864202 0.94405118 2.2 0 0 0
1101 1 14.215787 14.240186 0.059581 0.03760126 -0.32639295 0.94448599 2.2 0 0 0
1102 1 15.773704 15.743123 1.514917 0.26554160 0.39398778 0.87992118 2.2 0 0 0
1103 1 14.220334 14.493330 2.678754 -0.39744238 0.38489390 0.83300435 2.2 0 0 0
1104 1 15.742552 15.872683 4.209460 -0.02182982 -0.71117006 0.70268101 2.2 0 0 0
1105 1 14.304484 14.394910 5.863904 0.26615997 -0.15069294 0.95207694 2.2 0 0 0
1106 1 15.820680 15.715840 7.150592 -0.07572694 0.46378874 0.88270348 2.2 0 0 0
1107 1 14.371097 14.297249 8.533269 -0.90616194 -0.23924111 0.34876099 2.2 0 0 0
1108 1 15.887047 15.747126 10.070415 0.13413847 -0.50631797 0.85185033 2.2 0 0 0
1109 1 14.319036 14.364129 11.461088 0.02997993 -0.07091040 0.99703205 2.2 0 0 0
1110 1 15.642412 15.739666 12.748186 -0.24103142 0.82769227 0.50678335 2.2 0 0 0
1111 1 14.407338 14.445298 14.325061 0.58604662 -0.12074518 0.80123028 2.2 0 0 0
1112 1 15.789158 15.699011 15.797082 -0.08977049 0.21419635 0.97265676 2.2 0 0 0
1113 1 14.341472 14.258689 17.251270 -0.24641962 -0.19466104 0.94941269 2.2 0 0 0
1114 1 15.860144 15.759140 18.601403 -0.05213945 0.47862002 0.87647268 2.2 0 0 0
1115 1 14.291084 14.337846 20.041452 -0.44886319 -0.17599809 0.87609732 2.2 0 0 0
1116 1 15.733810 15.874232 21.503292 -0.52450327 -0.17462132 0.83330890 2.2 0 0 0
1117 1 14.379646 14.341409 22.917458 -0.27598028 0.41749070 0.86575770 2.2 0 0 0
1118 1 15.642498 15.724353 24.154133 0.06869643 -0.38748846 0.91931142 2.2 0 0 0
1119 1 14.408132 14.281401 25.734267 0.56368227 -0.13321805 0.81517805 2.2 0 0 0
1120 1 15.650812 15.691837 27.372933 -0.08981067 0.12236181 0.98841369 2.2 0 0 0
1121 1 14.310602 17.191804 0.067602 0.16460059 0.66614581 0.72743138 2.2 0 0 0
1122 1 15.810525 18.642842 1.570599 -0.45342317 -0.71649885 0.53012907 2.2 0 0 0
1123 1 14.337566 17.326897 2.865427 -0.32248677 0.45282771 0.83123363 2.2 0 0 0
1124 1 15.856460 18.594183 4.376726 0.64489006 0.10379256 0.75719477 2.2 0 0 0
1125 1 14.229780 17.199784 5.669269 0.08137289 0.27987316 0.95658218 2.2 0 0 0
1126 1 15.875473 18.515218 7.176528 0.60811943 -0.13213321 0.78277172 2.2 0 0 0
1127 1 14.416442 17.152427 8.676006 0.09779434 0.23075188 0.96808566 2.2 0 0 0
1128 1 15.807061 18.641676 10.076177 -0.52278838 0.31310831 0.79287798 2.2 0 0 0
1129 1 14.435569 17.211589 11.419953 -0.41844521 -0.64549311 0.63893838 2.2 0 0 0
1130 1 15.734897 18.671828 12.784215 -0.26367500 -0.18910687 0.94589327 2.2 0 0 0
1131 1 14.388225 17.218212 14.355979 0.66319773 -0.68257271 0.30702324 2.2 0 0 0
1132 1 15.714797 18.666932 15.840055 0.58443410 -0.44125036 0.68098084 2.2 0 0 0
1133 1 14.377125 17.296255 17.279495 -0.01545089 -0.51327095 0.85808752 2.2 0 0 0
1134 1 15.853833 18.513354 18.652469 0.05264955 -0.11468035 0.99200627 2.2 0 0 0
1135 1 14.292079 17.248430 20.121478 0.45853834 0.33189350 0.82437206 2.2 0 0 0
1136 1 15.647539 18.551088 21.567536 -0.10493818 0.17150690 0.97957815 2.2 0 0 0
1137 1 14.334805 17.137703 23.029251 -0.25205140 0.38997653 0.88565704 2.2 0 0 0
1138 1 15.723253 18.583858 24.342799 -0.25474332 0.38083256 0.88886017 2.2 0 0 0
1139 1 14.248308 17.306875 25.764694 -0.64143239 0.21812538 0.73551737 2.2 0 0 0
1140 1 15.818575 18.599528 27.292172 0.29758396 -0.11990305 0.94713623 2.2 0 0 0
1141 1 14.384727 20.004524 -0.096092 -0.05803909 -0.09719779 0.99357136 2.2 0 0 0
1142 1 15.764744 21.560321 1.501938 0.13483090 0.18029394 0.97432783 2.2 0 0 0
1143 1 14.283390 20.125168 2.924683 -0.20843138 -0.67563860 0.70715546 2.2 0 0 0
1144 1 15.809138 21.483321 4.303264 0.75167621 -0.02859523 0.65891212 2.2 0 0 0
1145 1 14.275309 20.026998 5.718380 -0.20764098 -0.44368952 0.87179403 2.2 0 0 0
1146 1 15.709774 21.621664 7.239962 -0.21359743 -0.33867740 0.91633714 2.2 0 0 0
1147 1 14.328604 20.018090 8.620337 -0.72352747 -0.10732377 0.68190146 2.2 0 0 0
1148 1 15.764895 21.499457 9.976368 -0.04071847 -0.30698477 0.95084297 2.2 0 0 0
1149 1 14.228289 20.049831 11.491372 -0.00369253 0.02024102 0.99978831 2.2 0 0 0
1150 1 15.752363 21.586393 12.998387 -0.71751413 -0.05852417 0.69408097 2.2 0 0 0
1151 1 14.286143 20.089886 14.318357 0.73150172 -0.13543523 0.66825334 2.2 0 0 0
1152 1 15.727454 21.455158 15.873101 0.15784020 0.76784455 0.62088745 2.2 0 0 0
1153 1 14.442367 19.988384 17.360953 -0.15710969 -0.18070463 0.97090802 2.2 0 0 0
1154 1 15.671778 21.424723 18.596794 -0.29132017 0.23716653 0.92676027 2.2 0 0 0
1155 1 14.368124 20.078068 20.188941 -0.29920218 -0.35242337 0.88672195 2.2 0 0 0
1156 1 15.752028 21.551554 21.456280 -0.59760799 0.19920843 0.77664708 2.2 0 0 0
1157 1 14.350972 20.028535 22.913805 0.79446745 -0.11391394 0.59652752 2.2 0 0 0
1158 1 15.718663 21.354888 24.404902 0.48253546 -0.86880963 0.11103763 2.2 0 0 0
1159 1 14.211493 20.008622 25.850224 -0.26266615 -0.06109060 0.96295090 2.2 0 0 0
1160 1 15.691470 21.539343 27.308493 -0.17279144 -0.13587655 0.97554122 2.2 0 0 0
1161 1 14.229028 22.859450 0.058106 0.31961698 0.07527119 0.94455240 2.2 0 0 0
1162 1 15.835595 24.306795 1.408208 0.00593173 0.29103991 0.95669253 2.2 0 0 0
1163 1 14.298311 22.915508 2.862321 -0.62876695 0.38815364 0.67378697 2.2 0 0 0
1164 1 15.783883 24.323547 4.291667 0.13887618 -0.59292344 0.79319304 2.2 0 0 0
1165 1 14.231962 22.953478 5.692689 0.28525244 0.86692285 0.40874909 2.2 0 0 0
1166 1 15.769707 24.451763 7.206612 -0.11648869 0.15273837 0.98137729 2.2 0 0 0
1167 1 14.413314 22.969525 8.738033 0.41566457 0.05213319 0.90802263 2.2 0 0 0
1168 1 15.775448 24.434678 10.011580 0.43382636 0.32361903 0.84087182 2.2 0 0 0
1169 1 14.395627 22.980236 11.528167 0.24503441 -0.03387028 0.96892257 2.2 0 0 0
1170 1 15.863640 24.267527 13.029891 0.26848449 0.73255643 0.62552151 2.2 0 0 0
1171 1 14.240132 22.889880 14.299462 -0.37694496 0.39584828 0.83738679 2.2 0 0 0
1172 1 15.700011 24.307727 15.903091 -0.15414125 -0.25876207 0.95356314 2.2 0 0 0
1173 1 14.272366 22.810272 17.112300 -0.27743200 0.23319439 0.93201495 2.2 0 0 0
1174 1 15.815360 24.345997 18.604522 -0.36703734 0.71906573 0.59010852 2.2 0 0 0
1175 1 14.356586 22.832797 20.014851 -0.35110166 0.14491737 0.92505491 2.2 0 0 0
1176 1 15.765878 24.358683 21.468254 0.05526639 -0.39158659 0.91848003 2.2 0 0 0
1177 1 14.454333 22.878250 22.960731 -0.61369025 -0.11575265 0.78101575 2.2 0 0 0
1178 1 15.831751 24.457323 24.277662 -0.45727636 -0.43648189 0.77484314 2.2 0 0 0
1179 1 14.398996 22.872923 25.862544 0.10597868 0.30008727 0.94800641 2.2 0 0 0
1180 1 15.862321 24.440077 27.394644 -0.74777314 -0.03745734 0.66289688 2.2 0 0 0
1181 1 14.220304 25.712526 0.065629 -0.36713243 -0.19961448 0.90849757 2.2 0 0 0
1182 1 15.665010 27.214322 1.439047 -0.30486921 -0.76902285 0.56183505 2.2 0 0 0
1183 1 14.320127 25.741796 2.806192 -0.02698625 0.76669271 0.64144683 2.2 0 0 0
1184 1 15.746747 27.202102 4.270394 -0.33181952 -0.50872045 0.79441759 2.2 0 0 0
1185 1 14.310958 25.783214 5.755594 0.25624256 -0.14918649 0.95503044 2.2 0 0 0
1186 1 15.715736 27.273315 7.111620 0.09109127 -0.02860976 0.99543150 2.2 0 0 0
1187 1 14.403543 25.802635 8.556647 -0.04168779 0.25143277 0.96697657 2.2 0 0 0
1188 1 15.744113 27.175137 10.008170 -0.51536765 -0.08205297 0.85303194 2.2 0 0 0
1189 1 14.294318 25.717531 11.458933 -0.15839318 -0.35548250 0.92116437 2.2 0 0 0
1190 1 15.932646 27.297820 12.867673 0.19943450 -0.44581082 0.87262741 2.2 0 0 0
1191 1 14.210548 25.785530 14.294656 0.06582497 -0.32809674 0.94234792 2.2 0 0 0
1192 1 15.710382 27.288529 15.732334 0.07945448 0.08876653 0.99287839 2.2 0 0 0
1193 1 14.329334 25.777458 17.292373 -0.07473858 0.00112216 0.99720253 2.2 0 0 0
1194 1 15.796604 27.091627 18.617684 -0.40070685 0.13914703 0.90557834 2.2 0 0 0
1195 1 14.400882 25.827274 20.027701 -0.07705876 -0.37958148 0.92194352 2.2 0 0 0
1196 1 15.771720 27.169713 21.617336 -0.58640751 -0.16242565 0.79356420 2.2 0 0 0
1197 1 14.287411 25.714143 22.931699 -0.12984339 -0.23093415 0.96426662 2.2 0 0 0
1198 1 15.799589 27.287144 24.430762 -0.21041859 -0.75235776 0.62424500 2.2 0 0 0
1199 1 14.333623 25.796001 25.740517 -0.13446128 -0.55164941 0.82316650 2.2 0 0 0
1200 1 15.851987 27.132918 27.253442 -0.49084644 0.06857159 0.86854344 2.2 0 0 0
1201 1 17.043671 -0.009734 -0.094684 -0.00044416 -0.77304429 0.63435189 2.2 0 0 0
1202 1 18.603110 1.567030 1.432125 -0.36832269 0.08673864 0.92564291 2.2 0 0 0
1203 1 17.200806 0.034092 2.890682 -0.05373224 -0.54500019 0.83671240 2.2 0 0 0
1204 1 18.704999 1.430509 4.226921 0.26519024 -0.12033916 0.95665700 2.2 0 0 0
1205 1 17.277886 0.076154 5.718155 0.36553372 0.03215012 0.93024269 2.2 0 0 0
1206 1 18.651419 1.436671 7.286520 -0.17507073 0.07648749 0.98158031 2.2 0 0 0
1207 1 17.145137 0.054454 8.643334 0.23873757 0.31929411 0.91709086 2.2 0 0 0
1208 1 18.730626 1.396527 9.869945 -0.07019947 0.26481336 0.96174109 2.2 0 0 0
1209 1 17.138068 0.035287 11.525318 0.16369758 -0.64742125 0.74434457 2.2 0 0 0
1210 1 18.631669 1.394556 12.930927 0.36054752 -0.60954710 0.70601545 2.2 0 0 0
1211 1 17.077104 0.031749 14.369404 0.57990046 -0.39197502 0.71419258 2.2 0 0 0
1212 1 18.704169 1.417545 15.803481 0.29009712 0.23953496 0.92653476 2.2 0 0 0
1213 1 17.145015 -0.114975 17.221555 -0.39015153 0.28876101 0.87429907 2.2 0 0 0
1214 1 18.695735 1.423067 18.652050 -0.20273838 -0.84839458 0.48900284 2.2 0 0 0
1215 1 17.154011 -0.024926 20.022077 -0.60152203 -0.25290956 0.75776513 2.2 0 0 0
1216 1 18.557246 1.354585 21.551528 0.67684673 -0.65375516 0.33835291 2.2 0 0 0
1217 1 17.174661 -0.063273 22.927640 -0.68826738 -0.06022406 0.72295302 2.2 0 0 0
1218 1 18.682623 1.508628 24.462040 -0.16143468 0.20430329 0.96550454 2.2 0 0 0
1219 1 17.240373 -0.050275 25.783895 -0.19366211 -0.13080682 0.97230888 2.2 0 0 0
1220 1 18.729670 1.442588 27.248193 0.09821135 0.15898583 0.98238385 2.2 0 0 0
1221 1 17.129622 2.889410 0.008693 -0.19125148 -0.43920142 0.87779553 2.2 0 0 0
1222 1 18.674278 4.455535 1.385536 -0.69667339 -0.16232608 0.69878210 2.2 0 0 0
1223 1 17.187842 2.859576 2.876577 -0.29780870 -0.41314989 0.86059116 2.2 0 0 0
1224 1 18.626539 4.171343 4.353638 0.40711958 0.06669330 0.91093669 2.2 0 0 0
1225 1 17.270177 2.911216 5.641697 0.16486133 -0.32923548 0.92974445 2.2 0 0 0
1226 1 18.600280 4.237055 7.259658 -0.14444618 -0.47639430 0.86728529 2.2 0 0 0
1227 1 17.194786 2.934115 8.614663 -0.35959158 0.04687520 0.93193166 2.2 0 0 0
1228 1 18.664833 4.265530 9.919757 0.27207096 -0.03021170 0.96180281 2.2 0 0 0
1229 1 17.202862 2.825295 11.530042 -0.10857662 0.94153056 0.31895347 2.2 0 0 0
1230 1 18.704091 4.368396 12.793185 0.02354081 0.93888776 0.34341753 2.2 0 0 0
1231 1 17.156861 2.839046 14.409573 0.52045296 0.57105428 0.63484306 2.2 0 0 0
1232 1 18.661832 4.192544 15.663525 -0.73739315 -0.32222612 0.59365114 2.2 0 0 0
1233 1 17.207281 2.905959 17.161496 0.15066243 -0.18159424 0.97176353 2.2 0 0 0
1234 1 18.500100 4.175142 18.636648 -0.29826345 0.39504168 0.86889642 2.2 0 0 0
1235 1 17.114219 2.879791 20.108680 0.23865845 -0.93012579 0.27912034 2.2 0 0 0
1236 1 18.709024 4.176611 21.714356 0.16633563 -0.42100108 0.89167850 2.2 0 0 0
1237 1 17.184656 2.745760 23.054354 0.22757711 -0.31050638 0.92292711 2.2 0 0 0
1238 1 18.550197 4.284187 24.395938 -0.31950594 -0.25357230 0.91302631 2.2 0 0 0
1239 1 17.131612 2.790768 25.845306 -0.13296320 0.53134476 0.83665616 2.2 0 0 0
1240 1 18.524862 4.314964 27.276242 -0.12258204 -0.22915428 0.96564070 2.2 0 0 0
1241 1 17.166107 5.723310 -0.128935 0.51054117 0.07450167 0.85661964 2.2 0 0 0
1242 1 18.517945 7.101050 1.351386 -0.22296004 0.50242928 0.83537635 2.2 0 0 0
1243 1 17.281239 5.793307 2.802824 -0.07377581 -0.00052479 0.99727471 2.2 0 0 0
1244 1 18.680763 7.222849 4.299031 -0.16287640 -0.39222455 0.90533484 2.2 0 0 0
1245 1 17.275216 5.558078 5.855167 -0.16218461 0.68306212 0.71212520 2.2 0 0 0
1246 1 18.604535 7.253149 7.283048 0.32178304 0.12139942 0.93899833 2.2 0 0 0
1247 1 17.262248 5.688652 8.557155 0.10361321 0.40967527 0.90632802 2.2 0 0 0
1248 1 18.727781 7.195775 9.979771 0.75146369 0.46079934 0.47219307 2.2 0 0 0
1249 1 17.235790 5.622936 11.537942 -0.00068913 -0.69633404 0.71771751 2.2 0 0 0
1250 1 18.688929 7.155335 12.816627 0.90213350 0.07646611 0.42462698 2.2 0 0 0
1251 1 17.170262 5.661875 14.234753 0.16730563 -0.21916959 0.96123541 2.2 0 0 0
1252 1 18.656006 7.154345 15.783883 -0.65777583 0.06720419 0.75020967 2.2 0 0 0
1253 1 17.213383 5.734379 17.204493 0.25525566 -0.27549518 0.92679391 2.2 0 0 0
1254 1 18.552028 7.043396 18.776372 0.11440229 -0.18400940 0.97624416 2.2 0 0 0
1255 1 17.182892 5.656630 19.949761 0.21662985 0.28319089 0.93427749 2.2 0 0 0
1256 1 18.666933 7.210000 21.563565 0.34054731 0.27029444 0.90053787 2.2 0 0 0
1257 1 17.190773 5.759216 22.789953 0.13222447 -0.35816803 0.92424691 2.2 0 0 0
1258 1 18.792440 7.161153 24.422056 -0.22335236 0.26904188 0.93687256 2.2 0 0 0
1259 1 17.186681 5.798411 25.832352 0.48561160 -0.00962767 0.87412166 2.2 0 0 0
1260 1 18.691116 7.195987 27.278548 0.37122944 -0.56823222 0.73437106 2.2 0 0 0
1261 1 17.196463 8.650597 -0.105016 -0.26960806 -0.31449183 0.91016833 2.2 0 0 0
1262 1 18.532240 10.112860 1.531026 0.07510990 0.48492608 0.87132382 2.2 0 0 0
1263 1 17.187054 8.570221 2.874650 -0.24027012 -0.42841509 0.87105154 2.2 0 0 0
1264 1 18.686853 10.006697 4.389742 -0.25063489 0.27256572 0.92891877 2.2 0 0 0
1265 1 17.262727 8.664684 5.816300 -0.20146394 0.01411630 0.97939421 2.2 0 0 0
1266 1 18.695420 10.096973 7.159272 -0.83042300 0.16737145 0.53139857 2.2 0 0 0
1267 1 17.085019 8.716390 8.615695 0.11740437 -0.27675409 0.95374178 2.2 0 0 0
1268 1 18.585984 10.076203 10.116041 -0.41544463 0.08852070 0.90530097 2.2 0 0 0
1269 1 17.234318 8.571229 11.448389 0.40373968 0.59798506 0.69239306 2.2 0 0 0
1270 1 18.599977 10.024491 12.920209 -0.30491660 0.16456313 0.93805375 2.2 0 0 0
1271 1 17.389691 8.629425 14.321844 -0.15735873 -0.39738691 0.90405856 2.2 0 0 0
1272 1 18.620711 10.022019 15.748367 0.53959462 0.14592409 0.82918262 2.2 0 0 0
1273 1 17.122018 8.550749 17.187069 0.47000021 -0.43033259 0.77065794 2.2 0 0 0
1274 1 18.625000 10.029921 18.660970 -0.96844614 -0.07780666 0.23676614 2.2 0 0 0
1275 1 17.218050 8.653668 20.088088 0.07389526 -0.00656321 0.99724441 2.2 0 0 0
1276 1 18.741023 10.010451 21.448815 -0.32227762 -0.14593456 0.93532895 2.2 0 0 0
1277 1 17.150366 8.611383 22.889035 0.25460510 -0.22822036 0.93972959 2.2 0 0 0
1278 1 18.594203 10.047227 24.342368 0.02833249 0.58337679 0.81170733 2.2 0 0 0
1279 1 17.224689 8.662626 25.797707 0.41936404 -0.01649060 0.90766837 2.2 0 0 0
1280 1 18.735499 10.101731 27.197025 -0.05300287 0.28777584 0.95622997 2.2 0 0 0
1281 1 17.241811 11.497803 0.114320 -0.30355842 0.52722126 0.79365611 2.2 0 0 0
1282 1 18.663145 12.967877 1.406772 -0.06439891 -0.36496032 0.92879317 2.2 0 0 0
1283 1 17.250953 11.427879 2.875398 0.86859192 -0.02024463 0.49511436 2.2 0 0 0
1284 1 18.570939 12.998568 4.252747 -0.36192238 0.53251037 0.76514371 2.2 0 0 0
1285 1 17.166764 11.390402 5.725955 -0.11630276 0.30236178 0.94607136 2.2 0 0 0
1286 1 18.716004 12.866339 7.154172 -0.39469700 -0.68278095 0.61483693 2.2 0 0 0
1287 1 17.288120 11.525198 8.517530 0.22620066 -0.12750472 0.96569965 2.2 0 0 0
1288 1 18.588842 12.923531 10.074398 -0.21487645 -0.08831020 0.97264044 2.2 0 0 0
1289 1 17.243887 11.509196 11.356605 0.05086961 0.30448660 0.95115729 2.2 0 0 0
1290 1 18.592876 12.884853 13.026450 0.27344470 0.43048136 0.86018242 2.2 0 0 0
1291 1 17.305597 11.543725 14.387426 -0.65836409 -0.00082333 0.75269917 2.2 0 0 0
1292 1 18.651257 13.116666 15.848058 -0.26089598 -0.83623378 0.48233428 2.2 0 0 0
1293 1 17.242099 11.489703 17.231328 -0.18024676 -0.32587786 0.92807043 2.2 0 0 0
1294 1 18.617526 12.979441 18.592830 0.46905627 0.32086529 0.82281935 2.2 0 0 0
1295 1 17.241815 11.486907 20.087860 -0.31350247 0.27158649 0.90992142 2.2 0 0 0
1296 1 18.588798 12.832853 21.425721 0.88611380 0.27684505 0.37169766 2.2 0 0 0
1297 1 17.315904 11.533705 22.999603 0.25677477 0.17726047 0.95007654 2.2 0 0 0
1298 1 18.703934 12.906746 24.413767 0.04930747 -0.43706028 0.89807966 2.2 0 0 0
1299 1 17.103931 11.411897 25.757184 0.30646319 -0.51063640 0.80332483 2.2 0 0 0
1300 1 18.710534 12.816251 27.280335 0.24499139 -0.28668818 0.92616905 2.2 0 0 0
1301 1 17.161896 14.372950 -0.026344 -0.26888853 -0.07957218 0.95987876 2.2 0 0 0
1302 1 18.650867 15.754101 1.363321 -0.27214258 -0.10107363 0.95693393 2.2 0 0 0
1303 1 17.177350 14.425180 2.760865 -0.10282430 -0.49103488 0.86505024 2.2 0 0 0
1304 1 18.596503 15.885345 4.258485 0.45541545 -0.71013337 0.53694261 2.2 0 0 0
1305 1 17.218871 14.273892 5.607135 0.22025196 0.03954394 0.97464114 2.2 0 0 0
1306 1 18.715346 15.875975 7.142520 -0.01052248 -0.01514826 0.99982989 2.2 0 0 0
1307 1 17.229970 14.287840 8.666264 0.60750298 0.07150361 0.79109251 2.2 0 0 0
1308 1 18.586522 15.841723 9.924642 0.03084019 -0.35473263 0.93445901 2.2 0 0 0
1309 1 17.276209 14.284302 11.443231 -0.32455457 -0.23693778 0.91571001 2.2 0 0 0
1310 1 18.529333 15.788206 12.917049 -0.41969143 0.16065170 0.89333652 2.2 0 0 0
1311 1 17.174174 14.327461 14.275246 0.73049529 0.29995473 0.61351755 2.2 0 0 0
1312 1 18.569823 15.739893 15.795706 -0.02532860 -0.13599202 0.99038610 2.2 0 0 0
1313 1 17.163030 14.355752 17.149440 0.49651728 -0.42276141 0.75811831 2.2 0 0 0
1314 1 18.679218 15.755530 18.640023 -0.03652149 0.02532739 0.99901186 2.2 0 0 0
1315 1 17.137973 14.248002 20.042157 0.36115409 0.59678473 0.71653033 2.2 0 0 0
1316 1 18.653926 15.889605 21.552365 0.91059240 -0.06261900 0.40853439 2.2 0 0 0
1317 1 17.279365 14.314451 22.840774 -0.29656192 0.27711336 0.91392517 2.2 0 0 0
1318 1 18.592977 15.795236 24.429900 -0.05115232 0.07502523 0.99586879 2.2 0 0 0
1319 1 17.283799 14.325403 25.794990 -0.39549314 -0.14009608 0.90772147 2.2 0 0 0
1320 1 18.741084 15.865295 27.250831 0.23350225 0.13340935 0.96316076 2.2 0 0 0
1321 1 17.233499 17.234550 0.051933 0.49662220 -0.19725043 0.84525656 2.2 0 0 0
1322 1 18.697078 18.606748 1.427657 0.10663380 0.01162703 0.99423038 2.2 0 0 0
1323 1 17.213938 17.319074 2.917760 -0.30585926 -0.06696020 0.94971914 2.2 0 0 0
1324 1 18.608727 18.700137 4.337178 0.90119531 -0.42685574 0.07510788 2.2 0 0 0
1325 1 17.271163 17.097496 5.781541 -0.40409321 -0.29440299 0.86604593 2.2 0 0 0
1326 1 18.664061 18.630699 7.294569 -0.47700501 0.77201469 0.42007087 2.2 0 0 0
1327 1 17.276799 17.068333 8.615519 0.01545527 0.66361677 0.74791304 2.2 0 0 0
1328 1 18.532625 18.525678 10.023156 -0.24920677 0.50649822 0.82544263 2.2 0 0 0
1329 1 17.287767 17.171225 11.476617 0.14463775 -0.01221859 0.98940923 2.2 0 0 0
1330 1 18.483377 18.604290 12.871105 0.03022372 -0.43158487 0.90156588 2.2 0 0 0
1331 1 17.238321 17.197571 14.317796 0.05864245 -0.06544099 0.99613179 2.2 0 0 0
1332 1 18.707918 18.525777 15.926132 0.86132645 -0.26333416 0.43447885 2.2 0 0 0
1333 1 17.217601 17.204308 17.126523 0.07846127 -0.30222366 0.95000247 2.2 0 0 0
1334 1 18.729414 18.703620 18.626810 -0.55258551 0.26487552 0.79024693 2.2 0 0 0
1335 1 17.193550 17.144021 20.077208 -0.14509043 0.04211243 0.98852178 2.2 0 0 0
1336 1 18.512794 18.718247 21.486390 0.22647750 -0.75902568 0.61039984 2.2 0 0 0
1337 1 17.179428 17.179593 22.919404 0.43487979 0.55419206 0.70975399 2.2 0 0 0
1338 1 18.638406 18.709603 24.366073 0.66787013 0.61519142 0.41891408 2.2 0 0 0
1339 1 17.290831 17.262624 25.643864 0.53151240 0.32162301 0.78361547 2.2 0 0 0
1340 1 18.557114 18.671842 27.324617 -0.37528456 0.57619667 0.72605709 2.2 0 0 0
1341 1 17.262923 20.033156 -0.014016 -0.15871906 0.23748740 0.95833606 2.2 0 0 0
1342 1 18.633226 21.546793 1.377704 0.57605294 0.67806549 0.45649775 2.2 0 0 0
1343 1 17.369455 20.047699 2.925755 0.50668408 -0.31814875 0.80128186 2.2 0 0 0
1344 1 18.701916 21.526739 4.264528 -0.41230571 0.28524233 0.86524032 2.2 0 0 0
1345 1 17.222118 20.122185 5.743123 0.42060730 -0.01605750 0.90710069 2.2 0 0 0
1346 1 18.698306 21.408712 7.265207 -0.27899242 0.46010231 0.84289329 2.2 0 0 0
1347 1 17.235891 19.858363 8.632983 0.44959867 0.82841529 0.33404962 2.2 0 0 0
1348 1 18.640959 21.507582 9.969688 0.03476508 0.74587288 0.66518046 2.2 0 0 0
1349 1 17.178578 19.917590 11.515149 0.72025616 -0.13359265 0.68072320 2.2 0 0 0
1350 1 18.584173 21.496327 12.785260 0.14391283 -0.16013231 0.97654838 2.2 0 0 0
1351 1 17.212178 20.259498 14.466155 0.15692665 -0.29791184 0.94160637 2.2 0 0 0
1352 1 18.583181 21.463213 15.680017 -0.15220588 0.52328290 0.83845595 2.2 0 0 0
1353 1 17.183676 20.194318 17.182360 -0.26496894 -0.23014329 0.93638962 2.2 0 0 0
1354 1 18.715730 21.520872 18.705344 0.29255086 -0.16614801 0.94170528 2.2 0 0 0
1355 1 17.148775 20.040190 20.108691 0.37303698 0.03008999 0.92732842 2.2 0 0 0
1356 1 18.591294 21.511908 21.360378 0.17490594 -0.77079733 0.61260051 2.2 0 0 0
1357 1 17.179853 20.084957 23.019341 0.44285253 -0.29432682 0.84690812 2.2 0 0 0
1358 1 18.558412 21.507341 24.369644 0.39451335 -0.00760759 0.91885872 2.2 0 0 0
1359 1 17.251142 20.094673 25.761744 0.22254555 -0.44579619 0.86702897 2.2 0 0 0
1360 1 18.699276 21.429110 27.297569 -0.47457646 0.10324781 0.87413790 2.2 0 0 0
1361 1 17.172712 22.888585 -0.001404 -0.13438217 -0.08589120 0.98720015 2.2 0 0 0
1362 1 18.636112 24.263409 1.469029 -0.41095240 -0.33729185 0.84696655 2.2 0 0 0
1363 1 17.148069 23.008462 2.918532 0.21288409 0.00498893 0.97706472 2.2 0 0 0
1364 1 18.591695 24.314784 4.382481 0.24897918 -0.15766616 0.95558922 2.2 0 0 0
1365 1 17.197698 22.898989 5.754256 0.27565666 -0.29906696 0.91354932 2.2 0 0 0
1366 1 18.624247 24.342719 7.205512 0.07144696 0.22176140 0.97247993 2.2 0 0 0
1367 1 17.216037 22.874879 8.646286 0.20906130 0.58268419 0.78534865 2.2 0 0 0
1368 1 18.520905 24.311315 9.969150 -0.42177697 -0.05197536 0.90520868 2.2 0 0 0
1369 1 17.216362 23.051716 11.588716 -0.41683986 -0.47779988 0.77327343 2.2 0 0 0
1370 1 18.655903 24.392547 12.916195 -0.47073325 0.24775502 0.84677485 2.2 0 0 0
1371 1 17.304382 22.889817 14.331317 0.07915258 0.10435032 0.99138584 2.2 0 0 0
1372 1 18.638849 24.375512 15.759577 -0.39771932 -0.42515840 0.81305577 2.2 0 0 0
1373 1 17.196783 22.996165 17.181510 0.23568399 -0.70937576 0.66425829 2.2 0 0 0
1374 1 18.704791 24.407045 18.667989 -0.19379882 0.39135916 0.89959992 2.2 0 0 0
1375 1 17.199412 22.917708 20.015817 -0.63521838 0.09374989 0.76662153 2.2 0 0 0
1376 1 18.760418 24.504550 21.393541 -0.80219814 0.30749715 0.51178477 2.2 0 0 0
1377 1 17.167592 22.911964 22.973531 0.07303887 -0.91755510 0.39084262 2.2 0 0 0
1378 1 18.560117 24.507194 24.233824 0.82715369 0.06431296 0.55828363 2.2 0 0 0
1379 1 17.168544 22.889486 25.763785 -0.94077296 -0.29135419 0.17337522 2.2 0 0 0
1380 1 18.703863 24.475048 27.225353 -0.89133513 -0.08896072 0.44453084 2.2 0 0 0
1381 1 17.245348 25.689938 -0.074604 0.07399590 0.60389566 0.79362122 2.2 0 0 0
1382 1 18.605958 27.339004 1.351486 0.03168531 0.79196433 0.60974465 2.2 0 0 0
1383 1 17.191099 25.827721 2.844697 -0.45721811 0.05184314 0.88784226 2.2 0 0 0
1384 1 18.683461 27.246896 4.320779 -0.11898013 0.38726039 0.91426097 2.2 0 0 0
1385 1 17.226306 25.911457 5.708912 0.33522798 0.33078595 0.88215807 2.2 0 0 0
1386 1 18.591819 27.186273 7.059729 0.53437558 0.12516697 0.83592821 2.2 0 0 0
1387 1 17.255991 25.861743 8.623442 -0.36568832 0.77442709 0.51627002 2.2 0 0 0
1388 1 18.585766 27.195430 9.965034 0.28460706 0.37173107 0.88363728 2.2 0 0 0
1389 1 17.181740 25.765906 11.376206 0.50605394 -0.71326880 0.48492992 2.2 0 0 0
1390 1 18.508337 27.211730 12.944365 -0.00004534 -0.22027417 0.97543800 2.2 0 0 0
1391 1 17.228509 25.848412 14.346322 0.26865618 -0.35760861 0.89439362 2.2 0 0 0
1392 1 18.622687 27.319542 15.731318 0.26225776 -0.21955343 0.93968993 2.2 0 0 0
1393 1 17.321431 25.829595 17.260680 0.15090625 0.41191728 0.89863867 2.2 0 0 0
1394 1 18.712576 27.211912 18.623823 0.21639840 -0.52558802 0.82275693 2.2 0 0 0
1395 1 17.199941 25.812734 20.058322 0.56681914 0.04473231 0.82262694 2.2 0 0 0
1396 1 18.704279 27.281566 21.386368 0.04727944 -0.15344368 0.98702568 2.2 0 0 0
1397 1 17.223749 25.923336 22.863362 0.28108824 -0.80994895 0.51475440 2.2 0 0 0
1398 1 18.657241 27.203833 24.413598 0.20607839 -0.09589978 0.97382490 2.2 0 0 0
1399 1 17.230944 25.715631 25.780621 0.44874016 -0.11968406 0.88561165 2.2 0 0 0
1400 1 18.590792 27.228598 27.192125 -0.15624549 0.20208170 0.96682487 2.2 0 0 0
1401 1 20.033594 0.033484 -0.004534 -0.54892224 0.28743402 0.78489875 2.2 0 0 0
1402 1 21.458338 1.470418 1.465621 -0.05750200 -0.10358449 0.99295709 2.2 0 0 0
1403 1 20.064392 0.025141 2.913527 0.61829524 -0.04586816 0.78460634 2.2 0 0 0
1404 1 21.558488 1.384459 4.254955 0.18390769 -0.51795397 0.83540508 2.2 0 0 0
1405 1 20.109156 0.070754 5.818590 0.56041321 -0.25838834 0.78687515 2.2 0 0 0
1406 1 21.499506 1.445404 7.035643 -0.28024204 -0.28305840 0.91724716 2.2 0 0 0
1407 1 20.026525 0.034650 8.753132 -0.09686686 -0.20646131 0.97364806 2.2 0 0 0
1408 1 21.364300 1.436133 9.989568 -0.19366467 -0.12397704 0.97320280 2.2 0 0 0
1409 1 20.071731 -0.084233 11.538851 -0.82352781 -0.28735848 0.48910842 2.2 0 0 0
1410 1 21.554216 1.425889 12.921123 0.04871211 0.15161832 0.98723807 2.2 0 0 0
1411 1 20.030445 -0.061052 14.505553 -0.06465266 -0.19182005 0.97929827 2.2 0 0 0
1412 1 21.438334 1.482503 15.720686 -0.59322823 0.55001870 0.58784326 2.2 0 0 0
1413 1 20.099273 0.042814 17.310548 0.02959811 -0.15088173 0.98810863 2.2 0 0 0
1414 1 21.385299 1.338876 18.694203 0.00403060 -0.02488139 0.99968228 2.2 0 0 0
1415 1 20.062228 0.040894 20.041546 -0.10561691 -0.41996488 0.90137371 2.2 0 0 0
1416 1 21.514388 1.386410 21.463928 -0.21758906 0.20900094 0.95340107 2.2 0 0 0
1417 1 20.060453 0.023092 22.942166 0.26826701 0.11672536 0.95624683 2.2 0 0 0
1418 1 21.589146 1.397895 24.372239 -0.09687192 -0.20295591 0.97438428 2.2 0 0 0
1419 1 20.108789 -0.106451 25.804695 0.00082288 -0.12234018 0.99248789 2.2 0 0 0
1420 1 21.457101 1.517269 27.202985 0.25985226 -0.54630599 0.79625786 2.2 0 0 0
1421 1 20.041584 2.883222 0.042080 -0.60074250 0.06829222 0.79652032 2.2 0 0 0
1422 1 21.512796 4.366248 1.272351 -0.14988038 -0.25901831 0.95417262 2.2 0 0 0
1423 1 20.068977 2.934067 2.840558 -0.19361231 -0.17010401 0.96621887 2.2 0 0 0
1424 1 21.541863 4.338130 4.321379 -0.03740664 0.13649710 0.98993398 2.2 0 0 0
1425 1 20.190128 2.943890 5.751104 -0.29888977 -0.49448655 0.81617888 2.2 0 0 0
1426 1 21.477348 4.408815 7.109654 0.02055622 -0.50093227 0.86524234 2.2 0 0 0
1427 1 20.053055 2.892760 8.619898 -0.36574670 -0.15664594 0.91743741 2.2 0 0 0
1428 1 21.601756 4.198340 9.993984 -0.60460883 0.15004986 0.78226159 2.2 0 0 0
1429 1 20.120961 2.928636 11.551563 -0.36210854 0.16640531 0.91716229 2.2 0 0 0
1430 1 21.487437 4.385745 12.826168 0.07932258 0.07114557 0.99430691 2.2 0 0 0
1431 1 20.121479 2.832316 14.505698 -0.51031114 -0.05577064 0.85817957 2.2 0 0 0
1432 1 21.455255 4.289293 15.615007 -0.34900715 -0.60233243 0.71790644 2.2 0 0 0
1433 1 20.048141 2.949926 17.145431 0.26560613 0.09601751 0.95928829 2.2 0 0 0
1434 1 21.440888 4.296368 18.632074 -0.31694346 -0.17529094 0.93210511 2.2 0 0 0
1435 1 20.179657 2.905383 20.011550 -0.04922116 0.58177681 0.81185776 2.2 0 0 0
1436 1 21.505476 4.267351 21.556336 -0.08860282 0.13898429 0.98632292 2.2 0 0 0
1437 1 20.096653 2.918503 23.027821 0.17439555 -0.10368301 0.97920173 2.2 0 0 0
1438 1 21.515142 4.187003 24.335205 0.24437491 0.67202605 0.69904355 2.2 0 0 0
1439 1 20.098090 2.855475 25.801415 -0.33955669 0.38472925 0.85830336 2.2 0 0 0
1440 1 21.394178 4.167907 27.359937 0.29228222 -0.20003338 0.93517792 2.2 0 0 0
1441 1 20.186500 5.802379 -0.036767 -0.14118776 0.22009490 0.96520684 2.2 0 0 0
1442 1 21.466048 7.170379 1.440427 -0.15740170 0.72100715 0.67481360 2.2 0 0 0
1443 1 20.042437 5.702914 2.777388 -0.07239384 -0.16220018 0.98409869 2.2 0 0 0
1444 1 21.573625 7.117530 4.313973 -0.51199108 0.29808551 0.80561167 2.2 0 0 0
1445 1 20.079587 5.760982 5.777099 0.27523648 -0.28369209 0.91856610 2.2 0 0 0
1446 1 21.377510 7.111115 7.262817 0.50954270 -0.82534047 0.24326806 2.2 0 0 0
1447 1 20.196684 5.695408 8.581122 0.41230855 0.66090134 0.62706545 2.2 0 0 0
1448 1 21.475017 7.207698 10.010849 0.68086095 -0.21885389 0.69895017 2.2 0 0 0
1449 1 19.945047 5.673600 11.401673 0.25574474 0.42245277 0.86955637 2.2 0 0 0
1450 1 21.395018 7.213114 12.875119 0.39746779 0.64279093 0.65485813 2.2 0 0 0
1451 1 19.866184 5.810468 14.287728 0.07611824 0.30641682 0.94884917 2.2 0 0 0
1452 1 21.469818 7.149116 15.805000 -0.65491234 -0.11281265 0.74723700 2.2 0 0 0
1453 1 19.947797 5.766371 17.102706 -0.04203131 0.59640621 0.80158156 2.2 0 0 0
1454 1 21.566642 7.186216 18.639873 -0.00104291 -0.10779224 0.99417290 2.2 0 0 0
1455 1 20.175327 5.785218 20.130838 -0.19791651 0.27234388 0.94162512 2.2 0 0 0
1456 1 21.502690 7.116105 21.445415 -0.43326381 -0.11994465 0.89325011 2.2 0 0 0
1457 1 19.999020 5.695532 22.831944 -0.77272839 -0.59299156 0.22638870 2.2 0 0 0
1458 1 21.589104 7.138220 24.343139 -0.27135678 0.35535846 0.89447519 2.2 0 0 0
1459 1 19.960689 5.689616 25.838336 -0.47640948 -0.11435654 0.87175489 2.2 0 0 0
1460 1 21.448356 7.166267 27.188147 0.28266692 0.29529658 0.91263319 2.2 0 0 0
1461 1 20.109208 8.517896 0.067622 0.98807509 0.15343666 -0.01283737 2.2 0 0 0
1462 1 21.500993 10.136706 1.460314 -0.17467544 0.85892442 0.48139103 2.2 0 0 0
1463 1 20.043675 8.524009 2.918457 -0.14391604 0.14248444 0.97927849 2.2 0 0 0
1464 1 21.583887 10.109076 4.389168 -0.45337763 0.09203265 0.88655441 2.2 0 0 0
1465 1 20.123198 8.622656 5.801036 0.27191491 -0.03645316 0.96163062 2.2 0 0 0
1466 1 21.463415 10.091586 7.180682 0.32113038 0.63459012 0.70297273 2.2 0 0 0
1467 1 20.150028 8.552684 8.505356 0.52098216 0.40959325 0.74887313 2.2 0 0 0
1468 1 21.454782 9.869418 10.004944 -0.58254489 0.02610590 0.81237918 2.2 0 0 0
1469 1 19.925009 8.706737 11.514647 -0.24795681 0.49008251 0.83566534 2.2 0 0 0
1470 1 21.460468 10.011317 12.933605 -0.68509893 -0.04047015 0.72732497 2.2 0 0 0
1471 1 20.093744 8.706597 14.289989 -0.36729465 0.29404194 0.88240239 2.2 0 0 0
1472 1 21.464185 10.053760 15.828233 0.40713759 -0.10348893 0.90748500 2.2 0 0 0
1473 1 20.071923 8.609512 17.061278 -0.41707823 0.07206199 0.90600928 2.2 0 0 0
1474 1 21.560351 9.984534 18.596777 -0.22170855 -0.60372945 0.76573890 2.2 0 0 0
1475 1 20.105524 8.598271 20.152781 0.62622020 0.40164101 0.66823106 2.2 0 0 0
1476 1 21.565528 10.142156 21.619869 0.77159545 0.21086601 0.60014663 2.2 0 0 0
1477 1 19.953669 8.466991 22.964851 -0.08626313 -0.38467938 0.91901058 2.2 0 0 0
1478 1 21.462052 10.012870 24.388878 -0.41323081 0.07340604 0.90766285 2.2 0 0 0
1479 1 20.091107 8.569362 25.878376 -0.10861766 -0.28676040 0.95182492 2.2 0 0 0
1480 1 21.522878 10.107898 27.295846 -0.72900922 0.36255932 0.58059994 2.2 0 0 0
1481 1 20.050284 11.380437 0.018455 0.11249791 -0.40902040 0.90556421 2.2 0 0 0
1482 1 21.500547 12.990179 1.449679 -0.24024256 -0.23849026 0.94096010 2.2 0 0 0
1483 1 19.908021 11.433124 2.978474 0.84041953 -0.05497497 0.53914077 2.2 0 0 0
1484 1 21.608587 12.903039 4.334184 -0.19482029 0.32528330 0.92533012 2.2 0 0 0
1485 1 20.040637 11.339880 5.844740 -0.35657178 -0.34651594 0.86763084 2.2 0 0 0
1486 1 21.423362 12.917678 7.077563 -0.69738127 0.63606550 0.33027269 2.2 0 0 0
1487 1 20.113135 11.480877 8.647298 0.53703537 0.30460950 0.78664227 2.2 0 0 0
1488 1 21.490505 12.899848 10.072100 0.38042579 0.46984688 0.79656771 2.2 0 0 0
1489 1 20.128961 11.499023 11.364845 -0.40265694 0.89968407 -0.16862968 2.2 0 0 0
1490 1 21.515395 12.873676 12.852404 0.02495134 0.44628496 0.89454299 2.2 0 0 0
1491 1 20.202770 11.524327 14.389318 -0.35593065 0.43147429 0.82894108 2.2 0 0 0
1492 1 21.554857 12.916665 15.824462 -0.28601802 0.67549272 0.67963467 2.2 0 0 0
1493 1 20.197746 11.443578 17.147709 0.75489454 0.32664105 0.56871773 2.2 0 0 0
1494 1 21.632778 12.916961 18.681086 0.12069101 0.71164354 0.69209620 2.2 0 0 0
1495 1 20.070355 11.392785 19.996677 0.18568824 -0.68184150 0.70753943 2.2 0 0 0
1496 1 21.473645 12.848924 21.430124 -0.15084542 -0.48660940 0.86049808 2.2 0 0 0
1497 1 20.043824 11.377943 22.950606 -0.39410943 0.09313495 0.91433235 2.2 0 0 0
1498 1 21.420145 12.921506 24.241637 -0.16902618 -0.66432310 0.72808308 2.2 0 0 0
1499 1 20.043597 11.499335 25.793735 0.49762304 -0.62125685 0.60531913 2.2 0 0 0
1500 1 21.399840 12.857056 27.212350 0.27531545 -0.38202359 0.88219010 2.2 0 0 0
1501 1 19.975987 14.333161 0.066761 -0.55665092 -0.06614277 0.82810922 2.2 0 0 0
1502 1 21.500363 15.714725 1.374860 -0.10158483 0.44646520 0.88901594 2.2 0 0 0
1503 1 19.913296 14.244498 2.718860 -0.74828878 0.24375009 0.61696822 2.2 0 0 0
1504 1 21.475938 15.804397 4.188537 -0.32988761 0.55352309 0.76471325 2.2 0 0 0
1505 1 20.095264 14.406402 5.658025 -0.59295033 -0.26560027 0.76017524 2.2 0 0 0
1506 1 21.524214 15.710164 7.126223 0.31658152 -0.67792098 0.66347516 2.2 0 0 0
1507 1 20.128529 14.520408 8.564538 0.59448375 0.80407764 0.00694476 2.2 0 0 0
1508 1 21.544000 15.717098 9.935327 0.46000625 0.68025693 0.57065292 2.2 0 0 0
1509 1 20.144143 14.391370 11.297217 -0.01614777 0.24013697 0.97060470 2.2 0 0 0
1510 1 21.507931 15.682107 12.862136 0.13335771 -0.52247285 0.84216260 2.2 0 0 0
1511 1 20.121525 14.318176 14.318987 -0.47649155 -0.72561749 0.49642226 2.2 0 0 0
1512 1 21.529398 15.772749 15.851891 -0.42907819 -0.53566039 0.72729626 2.2 0 0 0
1513 1 20.049214 14.316171 17.028648 0.26078970 0.06791930 0.96300348 2.2 0 0 0
1514 1 21.499419 15.718244 18.651002 0.85144697 -0.09700303 0.51539157 2.2 0 0 0
1515 1 20.035567 14.283960 20.030644 -0.21108407 0.23792877 0.94806826 2.2 0 0 0
1516 1 21.519065 15.784556 21.506690 0.48560872 0.07496970 0.87095564 2.2 0 0 0
1517 1 20.015925 14.364168 23.020392 0.59890788 0.27077583 0.75365098 2.2 0 0 0
1518 1 21.472646 15.835843 24.345441 -0.23154905 0.23462519 0.94410596 2.2 0 0 0
1519 1 19.969818 14.263553 25.927359 0.75358436 0.06492613 0.65413700 2.2 0 0 0
1520 1 21.516520 15.799256 27.243551 -0.15542543 -0.01934885 0.98765812 2.2 0 0 0
1521 1 20.171538 17.189605 0.028474 -0.04922920 0.37300867 0.92652092 2.2 0 0 0
1522 1 21.472882 18.733603 1.440340 0.49462766 0.32473169 0.80615930 2.2 0 0 0
1523 1 20.062881 17.110181 2.828623 -0.13805536 -0.21782942 0.96617341 2.2 0 0 0
1524 1 21.502541 18.649093 4.326722 -0.23073002 -0.05120059 0.97166978 2.2 0 0 0
1525 1 20.156707 17.201281 5.869314 -0.63701894 -0.27103255 0.72162887 2.2 0 0 0
1526 1 21.555598 18.732767 7.063357 -0.61671898 -0.06175951 0.78475695 2.2 0 0 0
1527 1 20.017508 17.189084 8.576765 -0.15289940 -0.54649612 0.82338555 2.2 0 0 0
1528 1 21.491868 18.578183 10.035858 0.04097816 0.10372838 0.99376115 2.2 0 0 0
1529 1 20.073287 17.147775 11.439850 0.08979051 -0.00262281 0.99595722 2.2 0 0 0
1530 1 21.455797 18.668980 12.971729 -0.56832247 -0.04673035 0.82147784 2.2 0 0 0
1531 1 20.132137 17.209133 14.307862 -0.34578083 -0.02823797 0.93789031 2.2 0 0 0
1532 1 21.443638 18.654498 15.749187 -0.52270697 0.38850179 0.75884371 2.2 0 0 0
1533 1 19.967301 17.095996 17.356603 0.22520164 0.31787407 0.92099962 2.2 0 0 0
1534 1 21.590062 18.557226 18.737592 0.42528231 0.34682315 0.83597168 2.2 0 0 0
1535 1 20.009920 17.111004 20.050039 0.77603593 -0.19671261 0.59922649 2.2 0 0 0
1536 1 21.447320 18.719388 21.511903 0.20553999 -0.21932890 0.95375476 2.2 0 0 0
1537 1 19.999911 17.133856 22.977685 -0.64711248 0.32046845 0.69176977 2.2 0 0 0
1538 1 21.430899 18.667607 24.291195 -0.47109290 -0.47508881 0.74321067 2.2 0 0 0
1539 1 20.047570 17.234792 25.762822 -0.25229156 0.60407130 0.75594103 2.2 0 0 0
1540 1 21.519440 18.569163 27.263975 0.32694531 -0.01573796 0.94491221 2.2 0 0 0
1541 1 20.072204 20.193242 0.131675 0.37298132 -0.03591037 0.92714367 2.2 0 0 0
1542 1 21.438159 21.425146 1.461776 -0.46597725 0.15290782 0.87148402 2.2 0 0 0
1543 1 20.028639 20.177518 2.912381 0.02047538 0.25943438 0.96554366 2.2 0 0 0
1544 1 21.540862 21.544766 4.259907 0.11065694 0.18795856 0.97592347 2.2 0 0 0
1545 1 20.123215 20.053524 5.720282 0.47814041 -0.34158429 0.80913653 2.2 0 0 0
1546 1 21.526760 21.521311 7.184467 0.43287193 -0.56841148 0.69966441 2.2 0 0 0
1547 1 20.105304 20.114908 8.696579 0.81512505 0.34273903 0.46701296 2.2 0 0 0
1548 1 21.593823 21.599044 10.057616 0.57055047 0.29719840 0.76560125 2.2 0 0 0
1549 1 20.057106 20.093544 11.516889 -0.72583386 0.24017690 0.64457758 2.2 0 0 0
1550 1 21.330377 21.518696 12.895473 0.77860358 0.09342876 0.62052198 2.2 0 0 0
1551 1 20.113684 20.084937 14.342913 0.16955779 0.12596556 0.97743687 2.2 0 0 0
1552 1 21.552618 21.457460 15.678400 0.70706518 -0.34122652 0.61937330 2.2 0 0 0
1553 1 20.121407 20.035331 17.185898 0.44548365 0.14686385 0.88316212 2.2 0 0 0
1554 1 21.519060 21.419625 18.508506 -0.21326050 0.17281254 0.96159024 2.2 0 0 0
1555 1 20.088565 20.014636 19.996520 0.05372347 0.47541073 0.87812210 2.2 0 0 0
1556 1 21.542901 21.433545 21.517185 -0.00841557 0.07050670 0.99747581 2.2 0 0 0
1557 1 20.055764 20.136281 22.892323 -0.37923240 0.31257670 0.87090677 2.2 0 0 0
1558 1 21.477567 21.487286 24.310104 -0.21142618 -0.17202519 0.96213632 2.2 0 0 0
1559 1 19.955040 20.179750 25.854721 -0.26859073 0.01368014 0.96315724 2.2 0 0 0
1560 1 21.431268 21.427455 27.270044 0.19086245 0.32719266 0.92548176 2.2 0 0 0
1561 1 20.011152 22.951031 -0.017846 0.36249346 -0.02687931 0.93159862 2.2 0 0 0
1562 1 21.390831 24.427653 1.409355 -0.04696876 0.33652643 0.94050194 2.2 0 0 0
1563 1 20.073441 22.923642 2.859517 0.32865607 -0.03733402 0.94371148 2.2 0 0 0
1564 1 21.517302 24.361462 4.292598 -0.57260147 0.13204880 0.80912957 2.2 0 0 0
1565 1 19.945253 22.916347 5.763274 0.11864103 -0.44019782 0.89002819 2.2 0 0 0
1566 1 21.564317 24.274293 7.246770 0.48567409 -0.17025745 0.85739902 2.2 0 0 0
1567 1 20.111674 23.017694 8.666945 0.21414857 0.26989830 0.93877329 2.2 0 0 0
1568 1 21.397663 24.309407 10.017780 -0.57144499 -0.29891310 0.76426539 2.2 0 0 0
1569 1 19.959511 22.900388 11.463420 -0.03883727 -0.06351918 0.99722464 2.2 0 0 0
1570 1 21.480891 24.371573 12.886566 0.29728573 0.89011880 0.34541239 2.2 0 0 0
1571 1 20.038132 22.863994 14.264198 0.06910999 0.32051684 0.94471835 2.2 0 0 0
1572 1 21.535095 24.318843 15.864259 -0.23904330 0.05622177 0.96937991 2.2 0 0 0
1573 1 20.015418 23.036471 17.129387 -0.46025991 0.49328338 0.73812758 2.2 0 0 0
1574 1 21.500851 24.190706 18.623442 -0.15259380 -0.32032646 0.93493641 2.2 0 0 0
1575 1 20.171986 22.941817 20.114147 0.30246132 0.06887812 0.95066974 2.2 0 0 0
1576 1 21.425046 24.425962 21.455081 0.49624313 -0.32300308 0.80586089 2.2 0 0 0
1577 1 20.168397 22.892823 23.009035 -0.11926941 -0.07150539 0.99028369 2.2 0 0 0
1578 1 21.507415 24.358074 24.298023 -0.12052592 -0.35389659 0.92748623 2.2 0 0 0
1579 1 20.147542 22.976095 25.735443 0.24746866 0.35042457 0.90330609 2.2 0 0 0
1580 1 21.410613 24.371994 27.306453 -0.80013236 -0.19419883 0.56751653 2.2 0 0 0
1581 1 19.937996 25.776813 -0.007991 -0.32171325 0.15828708 0.93351261 2.2 0 0 0
1582 1 21.481491 27.288781 1.479228 0.10216687 0.51621366 0.85034427 2.2 0 0 0
1583 1 20.099213 25.739663 2.895144 -0.63516064 -0.07674781 0.76855757 2.2 0 0 0
1584 1 21.493181 27.260134 4.366486 0.38297762 -0.37981132 0.84206384 2.2 0 0 0
1585 1 20.022514 25.739646 5.709947 0.27402694 0.26779683 0.92368506 2.2 0 0 0
1586 1 21.469569 27.181832 7.253321 -0.09523824 0.38450853 0.91819544 2.2 0 0 0
1587 1 20.063890 25.870186 8.614145 0.11454139 -0.38423139 0.91610398 2.2 0 0 0
1588 1 21.413090 27.203083 10.028725 0.17363548 0.31908694 0.93168355 2.2 0 0 0
1589 1 20.071178 25.877664 11.497249 -0.71959903 -0.02890886 0.69378780 2.2 0 0 0
1590 1 21.453099 27.205464 12.951641 0.08942213 -0.15275581 0.98421001 2.2 0 0 0
1591 1 20.162373 25.750194 14.265588 -0.16491445 0.22661397 0.95992152 2.2 0 0 0
1592 1 21.484649 27.275821 15.705506 -0.94115919 0.22323252 0.25374519 2.2 0 0 0
1593 1 20.080941 25.734550 17.313190 0.65346509 0.36511386 0.66308012 2.2 0 0 0
1594 1 21.497543 27.341565 18.529420 -0.62074353 -0.05812673 0.78185597 2.2 0 0 0
1595 1 20.005578 25.839504 20.033397 -0.25327242 0.40995719 0.87623524 2.2 0 0 0
1596 1 21.584727 27.211144 21.499175 0.09041317 -0.36423150 0.92690931 2.2 0 0 0
1597 1 19.998311 25.849051 22.918482 -0.23380176 0.25263197 0.93888968 2.2 0 0 0
1598 1 21.547642 27.173491 24.288476 -0.40527390 0.24107810 0.88183582 2.2 0 0 0
1599 1 19.967726 25.896069 25.717454 0.17983723 -0.14381154 0.97312734 2.2 0 0 0
1600 1 21.431758 27.130087 27.177531 0.93968796 0.12293548 0.31917615 2.2 0 0 0
1601 1 22.990911 0.028179 0.060892 -0.23425948 0.66560445 0.70858536 2.2 0 0 0
1602 1 24.323337 1.348742 1.435166 -0.72927178 -0.52502089 0.43876614 2.2 0 0 0
1603 1 22.948099 -0.072879 2.825816 -0.63016452 0.55516777 0.54284568 2.2 0 0 0
1604 1 24.372653 1.508321 4.321994 -0.47826546 0.42353289 0.76933871 2.2 0 0 0
1605 1 23.017046 0.021614 5.810425 0.29897677 0.43546322 0.84910816 2.2 0 0 0
1606 1 24.366544 1.352149 7.101396 -0.16704626 0.40235701 0.90011354 2.2 0 0 0
1607 1 22.961037 -0.079464 8.485511 -0.89032944 0.00072855 0.45531632 2.2 0 0 0
1608 1 24.425818 1.456398 10.000941 0.27140875 0.06264232 0.96042346 2.2 0 0 0
1609 1 22.947683 0.034339 11.482077 0.19570088 -0.15836149 0.96779275 2.2 0 0 0
1610 1 24.445601 1.329332 12.943932 -0.11119331 -0.35425946 0.92851294 2.2 0 0 0
1611 1 22.884517 -0.108173 14.290113 0.14306217 -0.26460151 0.95368719 2.2 0 0 0
1612 1 24.337148 1.340408 15.800385 -0.31556481 -0.04490859 0.94784074 2.2 0 0 0
1613 1 22.862678 0.082748 17.234573 -0.08004388 -0.43546305 0.89664091 2.2 0 0 0
1614 1 24.284864 1.310329 18.676721 0.01488950 0.31929952 0.94753687 2.2 0 0 0
1615 1 23.072946 0.046390 19.997623 0.64464180 -0.10647005 0.75703439 2.2 0 0 0
1616 1 24.362865 1.309026 21.657317 -0.32403056 0.13093213 0.93694236 2.2 0 0 0
1617 1 22.805482 0.056774 22.961779 -0.23398210 0.61668604 0.75163203 2.2 0 0 0
1618 1 24.318709 1.375800 24.286264 -0.51148570 -0.58655843 0.62795826 2.2 0 0 0
1619 1 22.958974 -0.055570 25.870498 0.24570428 -0.15747225 0.95646845 2.2 0 0 0
1620 1 24.299000 1.433902 27.144280 0.97315227 -0.01428842 0.22971831 2.2 0 0 0
1621 1 22.960980 2.804872 0.031095 0.25082103 0.21914003 0.94290321 2.2 0 0 0
1622 1 24.373593 4.437200 1.456480 -0.22841337 0.14443897 0.96279007 2.2 0 0 0
1623 1 22.883591 2.834848 2.873125 0.54901164 0.23651023 0.80165400 2.2 0 0 0
1624 1 24.322279 4.316774 4.284928 0.22325938 0.91374003 0.33946192 2.2 0 0 0
1625 1 22.886017 2.868333 5.618184 0.68218382 0.41855249 0.59953236 2.2 0 0 0
1626 1 24.413991 4.387825 7.239414 0.38673537 -0.58280692 0.71468304 2.2 0 0 0
1627 1 22.918934 2.875188 8.358561 0.51493773 0.58172094 0.62963472 2.2 0 0 0
1628 1 24.398869 4.498233 10.105516 -0.54175030 0.33758631 0.76976756 2.2 0 0 0
1629 1 22.860599 2.820215 11.429161 0.11444569 0.58132326 0.80558392 2.2 0 0 0
1630 1 24.390836 4.405626 12.959647 -0.13745246 -0.37392632 0.91721640 2.2 0 0 0
1631 1 22.925360 2.962608 14.237389 -0.81624247 0.07208109 0.57319503 2.2 0 0 0
1632 1 24.349427 4.334927 15.805773 0.23144139 0.54170750 0.80807665 2.2 0 0 0
1633 1 22.858638 2.899559 17.241671 -0.87346279 0.44621182 0.19482752 2.2 0 0 0
1634 1 24.467220 4.305978 18.568750 -0.24105654 -0.34099300 0.90863387 2.2 0 0 0
1635 1 22.940618 2.740902 20.011703 0.34045371 -0.90259459 0.26346588 2.2 0 0 0
1636 1 24.292994 4.229797 21.593499 0.37764128 0.14606182 0.91435935 2.2 0 0 0
1637 1 22.809045 2.709573 22.872439 -0.07273973 0.14752869 0.98637935 2.2 0 0 0
1638 1 24.451119 4.310472 24.377752 0.34632775 -0.42403030 0.83681264 2.2 0 0 0
1639 1 22.959353 2.735672 25.673310 0.21600632 -0.10598585 0.97062262 2.2 0 0 0
1640 1 24.250807 4.209449 27.217922 0.13866211 -0.27142120 0.95241974 2.2 0 0 0
1641 1 22.943853 5.678172 0.042333 0.76284669 -0.28742312 0.57918293 2.2 0 0 0
1642 1 24.377361 7.215637 1.468276 0.23265007 0.10635427 0.96672784 2.2 0 0 0
1643 1 22.956746 5.778665 2.823672 0.15407350 -0.08104166 0.98473022 2.2 0 0 0
1644 1 24.507428 7.178843 4.239386 -0.23530875 0.62585504 0.74359617 2.2 0 0 0
1645 1 22.982539 5.784725 5.812756 -0.75502080 -0.44574025 0.48089419 2.2 0 0 0
1646 1 24.453438 7.227889 7.232817 -0.85460436 0.37857976 0.35542756 2.2 0 0 0
1647 1 23.024584 5.753649 8.741632 0.26871277 -0.16554792 0.94888742 2.2 0 0 0
1648 1 24.310399 7.210319 10.035635 0.15223463 0.15618915 0.97592498 2.2 0 0 0
1649 1 22.912188 5.699542 11.442170 0.37564223 -0.31732729 0.87074469 2.2 0 0 0
1650 1 24.370919 7.184497 12.883017 0.33853215 0.35834083 0.87005048 2.2 0 0 0
1651 1 22.926162 5.721817 14.415416 -0.03626910 0.33300631 0.94222680 2.2 0 0 0
1652 1 24.438662 7.218907 15.748225 0.17761416 0.00706955 0.98407481 2.2 0 0 0
1653 1 23.090324 5.783737 17.134688 -0.80614555 -0.47311330 0.35537750 2.2 0 0 0
1654 1 24.435149 7.223993 18.639167 -0.73649809 0.04813328 0.67472494 2.2 0 0 0
1655 1 22.814108 5.714515 20.113744 -0.04423902 0.56413173 0.82449882 2.2 0 0 0
1656 1 24.367056 7.128659 21.609054 -0.49656695 -0.50066971 0.70904944 2.2 0 0 0
1657 1 22.880961 5.647034 22.900684 -0.66701431 0.37738843 0.64239386 2.2 0 0 0
1658 1 24.344586 7.162648 24.286040 0.14169467 0.03279054 0.98936717 2.2 0 0 0
1659 1 22.847062 5.733398 25.726398 -0.10850699 -0.35587036 0.92821470 2.2 0 0 0
1660 1 24.371460 7.148770 27.176496 0.09690301 0.08812622 0.99138468 2.2 0 0 0
1661 1 22.841540 8.635372 -0.028316 -0.80059363 0.10294792 0.59029786 2.2 0 0 0
1662 1 24.218977 10.108997 1.413726 -0.19944112 -0.56055897 0.80373931 2.2 0 0 0
1663 1 22.845743 8.560093 2.797055 0.53924129 0.36747244 0.75774853 2.2 0 0 0
1664 1 24.339527 10.051938 4.257690 -0.79442938 -0.19027153 0.57678307 2.2 0 0 0
1665 1 23.044794 8.683785 5.719245 0.13242019 0.78027875 0.61125279 2.2 0 0 0
1666 1 24.355251 10.002846 7.237204 -0.13208110 -0.51537950 0.84672224 2.2 0 0 0
1667 1 22.905695 8.607591 8.651361 0.35197809 -0.16647395 0.92108515 2.2 0 0 0
1668 1 24.406909 10.007373 9.947320 -0.47351441 0.10017354 0.87507106 2.2 0 0 0
1669 1 22.953263 8.608450 11.502638 -0.00143156 0.30194041 0.95332573 2.2 0 0 0
1670 1 24.418345 10.032058 12.928772 -0.32436729 -0.00751341 0.94590137 2.2 0 0 0
1671 1 23.027350 8.619158 14.432071 -0.04497797 0.55549937 0.83029960 2.2 0 0 0
1672 1 24.226179 10.056735 15.794241 0.55881883 -0.14825166 0.81593073 2.2 0 0 0
1673 1 22.942076 8.562035 17.234505 0.88672764 0.45919906 -0.05338844 2.2 0 0 0
1674 1 24.368050 10.029308 18.644178 -0.27965079 -0.29725729 0.91292581 2.2 0 0 0
1675 1 22.872553 8.529454 20.162455 0.24409782 0.70750367 0.66321551 2.2 0 0 0
1676 1 24.471650 10.118350 21.548748 -0.14971702 0.23480773 0.96044268 2.2 0 0 0
1677 1 22.969698 8.673790 22.913054 0.05720391 -0.97739915 0.20351562 2.2 0 0 0
1678 1 24.278067 10.019869 24.276016 0.34015413 0.10365274 0.93463965 2.2 0 0 0
1679 1 22.897265 8.482563 25.789276 -0.50051525 0.21528078 0.83853364 2.2 0 0 0
1680 1 24.363183 9.969632 27.223252 0.03800172 0.54306364 0.83883118 2.2 0 0 0
1681 1 22.891939 11.549879 -0.007239 -0.29353407 -0.45551195 0.84044430 2.2 0 0 0
1682 1 24.423847 12.982407 1.460712 -0.06347787 0.25204859 0.96563040 2.2 0 0 0
1683 1 22.860956 11.420466 2.972285 0.31905353 -0.01245360 0.94765487 2.2 0 0 0
1684 1 24.215860 12.808009 4.297267 -0.24626687 -0.13579498 0.95964178 2.2 0 0 0
1685 1 22.830287 11.474406 5.709096 -0.30592309 -0.18730190 0.93345009 2.2 0 0 0
1686 1 24.201363 12.867415 7.141917 0.86839006 -0.05015024 0.49333930 2.2 0 0 0
1687 1 22.831005 11.471048 8.661109 -0.24298165 -0.19504740 0.95021915 2.2 0 0 0
1688 1 24.385473 13.004434 10.135536 -0.09006817 0.44629269 0.89034294 2.2 0 0 0
1689 1 22.904922 11.600331 11.424050 0.54035798 -0.02094529 0.84117450 2.2 0 0 0
1690 1 24.347367 12.889762 12.886757 0.11902056 0.05524975 0.99135340 2.2 0 0 0
1691 1 22.956004 11.499220 14.351269 -0.30676808 0.03126077 0.95127079 2.2 0 0 0
1692 1 24.352498 12.862760 15.859923 0.35808218 0.08558913 0.92975892 2.2 0 0 0
1693 1 22.967289 11.435722 17.269840 -0.63682875 0.22502313 0.73743728 2.2 0 0 0
1694 1 24.343645 13.016087 18.527097 -0.18567213 0.98097868 -0.05662771 2.2 0 0 0
1695 1 22.831943 11.597667 20.092697 -0.06380524 0.20496859 0.97668663 2.2 0 0 0
1696 1 24.365332 12.980779 21.514868 -0.18327486 -0.45303682 0.87244941 2.2 0 0 0
1697 1 22.862030 11.406712 22.841148 0.00832034 -0.64476696 0.76433392 2.2 0 0 0
1698 1 24.382441 12.933122 24.446706 -0.33992910 -0.05572631 0.93879859 2.2 0 0 0
1699 1 23.061861 11.479376 25.724132 0.48120495 0.35721924 0.80052246 2.2 0 0 0
1700 1 24.326902 12.895504 27.276454 0.14590891 0.24025823 0.95968045 2.2 0 0 0
1701 1 23.034331 14.283840 0.045567 0.28295087 -0.05267363 0.95768695 2.2 0 0 0
1702 1 24.393781 15.642825 1.457653 0.35845685 -0.40244291 0.84234695 2.2 0 0 0
1703 1 22.884688 14.373206 2.907197 -0.81415961 0.31853640 0.48546750 2.2 0 0 0
1704 1 24.250293 15.698156 4.227787 -0.16542135 0.35921154 0.91847855 2.2 0 0 0
1705 1 23.028625 14.258815 5.733346 0.08166592 -0.45831862 0.88502809 2.2 0 0 0
1706 1 24.375782 15.792196 7.124853 -0.48943962 0.10772011 0.86535844 2.2 0 0 0
1707 1 22.979858 14.290394 8.623315 -0.11132298 0.02722248 0.99341136 2.2 0 0 0
1708 1 24.310186 15.643151 10.091179 -0.35395474 -0.19058027 0.91563923 2.2 0 0 0
1709 1 22.893971 14.307766 11.378422 -0.67799889 0.09808372 0.72848959 2.2 0 0 0
1710 1 24.360484 15.811545 12.887613 0.42480941 -0.57395289 0.70008217 2.2 0 0 0
1711 1 22.998038 14.364037 14.320822 0.64095995 -0.17807213 0.74663288 2.2 0 0 0
1712 1 24.422868 15.858085 15.835511 -0.39243536 0.25062054 0.88497674 2.2 0 0 0
1713 1 22.989061 14.399269 17.289805 0.70160016 -0.23835272 0.67152453 2.2 0 0 0
1714 1 24.494073 15.738542 18.585935 -0.75838702 0.26543240 0.59531065 2.2 0 0 0
1715 1 22.898680 14.272478 20.064298 -0.75186236 -0.15943408 0.63975289 2.2 0 0 0
1716 1 24.343362 15.764198 21.618911 -0.73115534 -0.33550837 0.59400842 2.2 0 0 0
1717 1 22.997087 14.285252 22.975366 0.14024507 -0.17974758 0.97366428 2.2 0 0 0
1718 1 24.299319 15.724903 24.335890 0.26686777 0.06653538 0.96143364 2.2 0 0 0
1719 1 22.920660 14.244568 25.825944 -0.35695536 0.59025203 0.72400649 2.2 0 0 0
1720 1 24.433094 15.895424 27.129780 -0.31248599 0.75800185 0.57252573 2.2 0 0 0
1721 1 23.032075 17.114674 -0.019467 0.63163388 -0.57219039 0.52310305 2.2 0 0 0
1722 1 24.445859 18.533729 1.361002 0.08760937 0.12035590 0.98885745 2.2 0 0 0
1723 1 23.021316 17.217891 2.888421 0.38037060 0.25055448 0.89024753 2.2 0 0 0
1724 1 24.338379 18.583762 4.256116 0.47874074 0.53216250 0.69829104 2.2 0 0 0
1725 1 22.982627 17.263949 5.693235 0.38053201 0.02829508 0.92433478 2.2 0 0 0
1726 1 24.351718 18.578043 7.165741 -0.49241684 -0.38497288 0.78059051 2.2 0 0 0
1727 1 22.866966 17.267668 8.657904 -0.27338238 0.48583998 0.83019370 2.2 0 0 0
1728 1 24.303318 18.658331 10.237200 0.48871585 0.38801062 0.78141191 2.2 0 0 0
1729 1 22.982700 17.267539 11.357888 -0.05636647 -0.84963652 0.52434779 2.2 0 0 0
1730 1 24.485546 18.674967 12.950569 -0.53582229 -0.28853303 0.79350057 2.2 0 0 0
1731 1 22.969755 17.173013 14.433959 0.21816977 0.37134225 0.90250035 2.2 0 0 0
1732 1 24.438066 18.613147 15.721488 0.62232166 0.71667040 0.31480039 2.2 0 0 0
1733 1 22.844502 17.179439 17.077810 0.38158021 0.53923744 0.75074598 2.2 0 0 0
1734 1 24.295209 18.684657 18.559035 0.28364837 0.07403698 0.95606596 2.2 0 0 0
1735 1 22.994267 17.240826 19.957543 -0.35624378 0.27747528 0.89224315 2.2 0 0 0
1736 1 24.298539 18.610260 21.495609 -0.41698777 -0.35125609 0.83829610 2.2 0 0 0
1737 1 22.986812 17.220036 22.864336 -0.84297592 0.27446187 0.46266866 2.2 0 0 0
1738 1 24.423441 18.700806 24.277021 0.15962968 -0.40664808 0.89953082 2.2 0 0 0
1739 1 22.932871 17.164507 25.743841 0.62337046 0.38784366 0.67895991 2.2 0 0 0
1740 1 24.442736 18.650915 27.135223 -0.22189322 -0.23145781 0.94720150 2.2 0 0 0
1741 1 22.971931 20.156865 0.024584 -0.31394460 0.61255844 0.72540399 2.2 0 0 0
1742 1 24.364463 21.538133 1.434161 0.16637271 0.17624853 0.97018378 2.2 0 0 0
1743 1 22.927202 20.060991 2.991737 0.61203995 0.10286781 0.78410797 2.2 0 0 0
1744 1 24.396714 21.496330 4.293118 -0.32507162 0.16042311 0.93198330 2.2 0 0 0
1745 1 22.922861 19.921696 5.728656 -0.32110546 -0.52688698 0.78694434 2.2 0 0 0
1746 1 24.448046 21.577523 7.271072 0.45629106 0.14429673 0.87805292 2.2 0 0 0
1747 1 22.895656 20.056571 8.717839 0.46900047 0.79669606 0.38120066 2.2 0 0 0
1748 1 24.410848 21.443774 9.949039 0.36425200 -0.39915385 0.84142539 2.2 0 0 0
1749 1 23.042698 19.976216 11.461798 0.57530349 -0.71564352 0.39608112 2.2 0 0 0
1750 1 24.346829 21.499588 12.946096 0.15355831 -0.35643582 0.92161454 2.2 0 0 0
1751 1 22.940631 20.041635 14.319124 -0.52610760 0.35788165 0.77144767 2.2 0 0 0
1752 1 24.396635 21.549855 15.667739 -0.10642732 -0.04403233 0.99334505 2.2 0 0 0
1753 1 23.086723 20.063158 17.106440 -0.35913013 0.57577722 0.73451082 2.2 0 0 0
1754 1 24.354557 21.429740 18.639103 0.54380104 0.68278972 0.48793302 2.2 0 0 0
1755 1 22.918029 19.940263 20.168178 0.71985731 -0.35386190 0.59714924 2.2 0 0 0
1756 1 24.385838 21.581493 21.593528 0.49688355 0.00634419 0.86779403 2.2 0 0 0
1757 1 22.868512 20.063930 22.853339 -0.96009711 -0.01466027 0.27928232 2.2 0 0 0
1758 1 24.402289 21.352239 24.277528 -0.02099927 -0.38885535 0.92105947 2.2 0 0 0
1759 1 23.032884 20.081528 25.766952 -0.30266579 -0.18941100 0.93408613 2.2 0 0 0
1760 1 24.272698 21.369599 27.142019 -0.31320437 0.21078240 0.92599882 2.2 0 0 0
1761 1 22.951191 22.931881 0.141759 -0.47666276 0.03220332 0.87849619 2.2 0 0 0
1762 1 24.370427 24.435593 1.465122 -0.51562763 -0.48995813 0.70290055 2.2 0 0 0
1763 1 22.891765 22.859871 2.971886 0.54650652 -0.29799164 0.78264398 2.2 0 0 0
1764 1 24.309550 24.397291 4.331927 -0.03344175 0.43763862 0.89852885 2.2 0 0 0
1765 1 23.060486 22.826427 5.530499 -0.39839372 -0.37831881 0.83555809 2.2 0 0 0
1766 1 24.355704 24.321390 7.238261 0.13849713 0.56635635 0.81244017 2.2 0 0 0
1767 1 22.909954 22.929844 8.606174 0.52257956 -0.20703662 0.82707100 2.2 0 0 0
1768 1 24.308713 24.389086 10.146044 -0.41450876 0.23777705 0.87843302 2.2 0 0 0
1769 1 23.059793 22.895964 11.533498 -0.15240857 0.02658789 0.98795987 2.2 0 0 0
1770 1 24.391396 24.401754 12.848647 -0.42938567 0.60166272 0.67352054 2.2 0 0 0
1771 1 22.872009 22.982234 14.329995 -0.00309915 0.45990139 0.88796459 2.2 0 0 0
1772 1 24.395889 24.458076 15.737341 0.01994250 -0.51276204 0.85829913 2.2 0 0 0
1773 1 22.955963 23.056882 17.171224 0.37509080 -0.66268408 0.64819495 2.2 0 0 0
1774 1 24.188539 24.309528 18.617933 -0.22295957 -0.65801351 0.71924075 2.2 0 0 0
1775 1 22.920323 22.976639 20.260026 0.29050292 0.22696789 0.92956637 2.2 0 0 0
1776 1 24.484354 24.481369 21.530505 0.56978515 -0.03621504 0.82099534 2.2 0 0 0
1777 1 22.977798 22.935711 22.880501 -0.16238334 0.52451849 0.83577030 2.2 0 0 0
1778 1 24.421177 24.465171 24.276829 -0.06272811 -0.21847315 0.97382476 2.2 0 0 0
1779 1 23.021631 23.009186 25.720395 -0.03349528 -0.08822091 0.99553761 2.2 0 0 0
1780 1 24.457833 24.368410 27.260160 -0.24060335 -0.02327538 0.97034442 2.2 0 0 0
1781 1 22.837360 25.757574 0.036373 0.09899263 -0.03462403 0.99448561 2.2 0 0 0
1782 1 24.356834 27.022552 1.376821 0.32699815 -0.15080332 0.93291509 2.2 0 0 0
1783 1 22.947952 25.711435 2.879827 -0.48137514 0.51968138 0.70583939 2.2 0 0 0
1784 1 24.336018 27.289930 4.390468 0.81910226 -0.23650774 0.52262375 2.2 0 0 0
1785 1 22.936125 25.865527 5.642501 0.07375851 0.27685909 0.95807553 2.2 0 0 0
1786 1 24.353397 27.261031 7.192384 -0.46285955 -0.38515635 0.79838313 2.2 0 0 0
1787 1 23.057065 25.863709 8.668065 0.33160510 -0.62989569 0.70233146 2.2 0 0 0
1788 1 24.391969 27.154236 10.040841 -0.03857065 -0.08116884 0.99595378 2.2 0 0 0
1789 1 22.953930 25.857895 11.421847 0.43735861 0.15213600 0.88632504 2.2 0 0 0
1790 1 24.416845 27.136977 13.079040 0.12330244 0.48764301 0.86429208 2.2 0 0 0
1791 1 22.909391 25.814749 14.398198 0.39694589 -0.19783303 0.89626784 2.2 0 0 0
1792 1 24.284804 27.237650 15.776369 -0.46564155 0.19007713 0.86431975 2.2 0 0 0
1793 1 22.929662 25.868767 17.238749 -0.48295814 0.04776232 0.87433987 2.2 0 0 0
1794 1 24.473159 27.220034 18.670307 -0.09369851 -0.12079165 0.98824590 2.2 0 0 0
1795 1 22.871117 25.771354 20.040849 -0.54573338 -0.18192160 0.81797287 2.2 0 0 0
1796 1 24.382484 27.153060 21.520713 -0.38843280 0.38014352 0.83941102 2.2 0 0 0
1797 1 22.949486 25.805654 22.799768 -0.46396392 -0.43192708 0.77341870 2.2 0 0 0
1798 1 24.304218 27.126513 24.291194 -0.28673626 -0.22619914 0.93092227 2.2 0 0 0
1799 1 23.045313 25.813381 25.887750 -0.26553701 -0.13454398 0.95466644 2.2 0 0 0
1800 1 24.394909 27.162162 27.327007 -0.03727092 0.42589755 0.90400340 2.2 0 0 0
1801 1 25.726140 -0.115546 0.076486 -0.09002343 -0.55346980 0.82798971 2.2 0 0 0
1802 1 27.114608 1.555146 1.449148 -0.06125093 -0.44172941 0.89505500 2.2 0 0 0
1803 1 25.671547 0.054700 2.767602 -0.54962602 0.07807687 0.83175431 2.2 0 0 0
1804 1 27.188294 1.417096 4.348066 -0.60274213 0.13602255 0.78625683 2.2 0 0 0
1805 1 25.844195 0.071093 5.741765 0.57192157 0.44734521 0.68759580 2.2 0 0 0
1806 1 27.196325 1.369830 7.192637 0.03910256 0.36529736 0.93006926 2.2 0 0 0
1807 1 25.811374 -0.128568 8.470354 -0.11388971 -0.13810439 0.98384771 2.2 0 0 0
1808 1 27.233667 1.359023 9.990196 -0.22247904 0.15132337 0.96312217 2.2 0 0 0
1809 1 25.792412 0.002000 11.597219 -0.42702484 -0.55493663 0.71392936 2.2 0 0 0
1810 1 27.215243 1.397102 12.835602 -0.22946719 -0.24257960 0.94260275 2.2 0 0 0
1811 1 25.725072 -0.114987 14.197745 0.18274053 0.71665616 0.67306006 2.2 0 0 0
1812 1 27.230681 1.460692 15.708987 -0.05190029 -0.35549683 0.93323543 2.2 0 0 0
1813 1 25.806201 -0.025919 17.174892 0.55256601 0.54686211 0.62897745 2.2 0 0 0
1814 1 27.167453 1.375579 18.539583 0.79403427 0.01713723 0.60763138 2.2 0 0 0
1815 1 25.876810 0.036438 20.030552 0.37969661 0.22706447 0.89681225 2.2 0 0 0
1816 1 27.130037 1.324811 21.411897 0.18510204 0.56321339 0.80531231 2.2 0 0 0
1817 1 25.792477 -0.098084 23.044845 0.36402835 0.29493627 0.88345682 2.2 0 0 0
1818 1 27.203877 1.454285 24.270004 0.05504686 0.16033018 0.98552731 2.2 0 0 0
1819 1 25.831735 0.076125 25.775232 -0.04992909 -0.87667086 0.47849273 2.2 0 0 0
1820 1 27.293494 1.455793 27.342595 0.55972983 -0.49353432 0.66567739 2.2 0 0 0
1821 1 25.824667 2.877828 0.039006 0.04735201 -0.20708215 0.97717694 2.2 0 0 0
1822 1 27.260856 4.321247 1.333859 0.13974013 0.25267963 0.95740571 2.2 0 0 0
1823 1 25.846337 2.838259 2.938848 0.41140623 -0.55757106 0.72101278 2.2 0 0 0
1824 1 27.279155 4.376056 4.288758 0.27800161 -0.57407090 0.77016732 2.2 0 0 0
1825 1 25.872879 2.975841 5.728279 0.14261236 -0.18765240 0.97182730 2.2 0 0 0
1826 1 27.224414 4.393004 7.311504 -0.52689675 0.63441074 0.56559954 2.2 0 0 0
1827 1 25.714032 2.892453 8.683869 0.28933342 -0.49594424 0.81873407 2.2 0 0 0
1828 1 27.193384 4.236980 9.973574 -0.25871581 0.52303282 0.81209778 2.2 0 0 0
1829 1 25.775720 2.867256 11.402752 -0.61591596 0.19574858 0.76310551 2.2 0 0 0
1830 1 27.182427 4.264423 12.808428 0.21286247 0.74312959 0.63438788 2.2 0 0 0
1831 1 25.687333 2.899298 14.397065 -0.22216516 -0.54364718 0.80937654 2.2 0 0 0
1832 1 27.173580 4.400664 15.847227 0.00036164 -0.26597763 0.96397913 2.2 0 0 0
1833 1 25.826053 2.882897 17.152694 0.88827039 0.02019028 0.45887697 2.2 0 0 0
1834 1 27.221318 4.267937 18.605454 -0.21472096 0.37647001 0.90120211 2.2 0 0 0
1835 1 25.786638 2.808720 20.106676 -0.17783801 -0.03222730 0.98353192 2.2 0 0 0
1836 1 27.210614 4.278737 21.518490 -0.84352258 0.08523102 0.53028797 2.2 0 0 0
1837 1 25.814040 2.936567 22.889052 0.31625791 -0.44849004 0.83596508 2.2 0 0 0
1838 1 27.217572 4.369124 24.446266 -0.27152561 0.36866480 0.88902200 2.2 0 0 0
1839 1 25.793739 2.969312 25.721331 0.28580045 0.44936124 0.84639978 2.2 0 0 0
1840 1 27.162116 4.348007 27.406002 0.59865058 0.19726681 0.77633968 2.2 0 0 0
1841 1 25.750765 5.812100 -0.021070 0.39219472 0.53381738 0.74914772 2.2 0 0 0
1842 1 27.220402 7.245119 1.470984 -0.32597247 0.19088814 0.92590694 2.2 0 0 0
1843 1 25.836599 5.717071 2.955083 -0.18642880 0.00200057 0.98246644 2.2 0 0 0
1844 1 27.251966 7.097160 4.286273 0.10634572 0.06688092 0.99207738 2.2 0 0 0
1845 1 25.799907 5.704790 5.808969 0.05375732 -0.24636909 0.96768405 2.2 0 0 0
1846 1 27.163686 7.088727 7.150194 0.19024791 0.19702758 0.96176185 2.2 0 0 0
1847 1 25.805079 5.816363 8.562947 0.42733111 0.23510233 0.87299199 2.2 0 0 0
1848 1 27.230170 7.183765 10.098940 0.40716972 -0.32833903 0.85229473 2.2 0 0 0
1849 1 25.757663 5.665425 11.429784 -0.78519808 0.34533075 0.51401424 2.2 0 0 0
1850 1 27.286570 7.097258 13.028147 0.29480937 0.14566727 0.94438789 2.2 0 0 0
1851 1 25.841848 5.755892 14.339902 0.51641816 -0.61269613 0.59826060 2.2 0 0 0
1852 1 27.195301 7.042979 15.914053 0.17208769 0.25905258 0.95040917 2.2 0 0 0
1853 1 25.885984 5.783736 17.157138 -0.30234701 0.68617328 0.66162868 2.2 0 0 0
1854 1 27.195950 7.119129 18.649326 -0.37212237 0.34774882 0.86057870 2.2 0 0 0
1855 1 25.873172 5.685330 20.041213 -0.52559533 0.19168097 0.82885943 2.2 0 0 0
1856 1 27.167413 7.174284 21.432396 0.74397757 0.29965723 0.59724611 2.2 0 0 0
1857 1 25.846027 5.740257 22.895366 -0.03350254 -0.14034721 0.98953537 2.2 0 0 0
1858 1 27.254044 7.105371 24.449624 -0.67047083 -0.58762444 0.45295296 2.2 0 0 0
1859 1 25.829320 5.765238 25.795795 -0.08570006 0.00126584 0.99632018 2.2 0 0 0
1860 1 27.263587 7.174111 27.316124 -0.23838408 -0.91641679 0.32148608 2.2 0 0 0
1861 1 25.785829 8.541542 0.028590 -0.19510429 -0.26014425 0.94565284 2.2 0 0 0
1862 1 27.190435 9.953210 1.470264 -0.19043416 0.25745078 0.94734045 2.2 0 0 0
1863 1 25.722313 8.630433 2.820176 -0.81975494 -0.01985657 0.57237012 2.2 0 0 0
1864 1 27.265354 10.102353 4.379055 -0.38440588 -0.02185785 0.92290539 2.2 0 0 0
1865 1 25.804790 8.629455 5.721360 -0.36849412 0.12157008 0.92164679 2.2 0 0 0
1866 1 27.199083 10.179340 7.212665 0.19080043 0.42890012 0.88297219 2.2 0 0 0
1867 1 25.747813 8.585008 8.513510 -0.22196697 -0.65707258 0.72040703 2.2 0 0 0
1868 1 27.155794 10.057618 9.955908 -0.03370863 -0.07088854 0.99691451 2.2 0 0 0
1869 1 25.779864 8.649105 11.468577 0.13835906 -0.07822204 0.98728825 2.2 0 0 0
1870 1 27.183255 10.065558 12.730615 -0.68289720 0.04330104 0.72923003 2.2 0 0 0
1871 1 25.860091 8.476770 14.367996 -0.14729563 -0.03980677 0.98829116 2.2 0 0 0
1872 1 27.305606 10.143501 15.759207 0.30206229 -0.36983182 0.87862552 2.2 0 0 0
1873 1 25.857221 8.660203 17.285418 -0.59159697 0.16236557 0.78971542 2.2 0 0 0
1874 1 27.233612 10.025158 18.539313 -0.22920716 -0.61391973 0.75535862 2.2 0 0 0
1875 1 25.891124 8.619131 20.040100 0.16477020 0.08978755 0.98223672 2.2 0 0 0
1876 1 27.445236 9.974245 21.534159 0.40283750 -0.03676568 0.91453279 2.2 0 0 0
1877 1 25.793736 8.650610 23.003579 -0.66358119 0.71532504 -0.21902076 2.2 0 0 0
1878 1 27.254480 10.079476 24.394474 -0.29845348 0.10244337 0.94891036 2.2 0 0 0
1879 1 25.703479 8.606854 25.816082 0.49275346 -0.26779468 0.82793722 2.2 0 0 0
1880 1 27.288206 10.071383 27.223365 0.23649725 0.07007922 0.96910162 2.2 0 0 0
1881 1 25.774547 11.480874 0.008426 0.47683026 -0.46360021 0.74679833 2.2 0 0 0
1882 1 27.314292 12.908159 1.518646 0.43928898 -0.15648024 0.88461241 2.2 0 0 0
1883 1 25.909437 11.427104 2.796866 -0.22091613 0.45495849 0.86267540 2.2 0 0 0
1884 1 27.195588 12.969234 4.253523 0.28708857 0.36987709 0.88361252 2.2 0 0 0
1885 1 25.771575 11.495340 5.614017 -0.50885969 0.29907702 0.80722658 2.2 0 0 0
1886 1 27.167601 12.821970 7.090612 -0.91337804 0.35514586 0.19902759 2.2 0 0 0
1887 1 25.766744 11.453899 8.583573 -0.10069586 0.05964239 0.99312795 2.2 0 0 0
1888 1 27.146751 13.004660 10.058268 -0.25308832 0.44629933 0.85834912 2.2 0 0 0
1889 1 25.884233 11.546974 11.498039 0.83870352 0.47219139 0.27131477 2.2 0 0 0
1890 1 27.356922 12.916950 12.888090 -0.72590425 0.12739356 0.67589488 2.2 0 0 0
1891 1 25.827767 11.391516 14.364140 0.04577518 0.19686763 0.97936090 2.2 0 0 0
1892 1 27.143782 13.016041 15.716195 0.38888003 -0.08024808 0.91778678 2.2 0 0 0
1893 1 25.842382 11.472630 17.201773 -0.31161680 -0.72598228 0.61306174 2.2 0 0 0
1894 1 27.151866 12.889868 18.554329 -0.20070463 -0.04877677 0.97843675 2.2 0 0 0
1895 1 25.784316 11.559228 19.978117 -0.41138121 0.42076179 0.80853263 2.2 0 0 0
1896 1 27.180282 12.974715 21.550281 -0.08787676 -0.00491704 0.99611922 2.2 0 0 0
1897 1 25.795781 11.581533 23.106613 0.14825218 0.11896824 0.98176772 2.2 0 0 0
1898 1 27.331086 12.855602 24.509096 0.10546031 0.44693272 0.88832948 2.2 0 0 0
1899 1 25.814278 11.502489 25.766767 -0.20402764 -0.04489062 0.97793535 2.2 0 0 0
1900 1 27.191603 12.898633 27.181076 -0.03819615 -0.02374624 0.99898807 2.2 0 0 0
1901 1 25.752958 14.298893 -0.107843 0.46181050 0.03129185 0.88642647 2.2 0 0 0
1902 1 27.124325 15.778489 1.440195 0.00419269 -0.51591503 0.85662950 2.2 0 0 0
1903 1 25.724292 14.345829 2.833044 -0.36136599 0.33852400 0.86880154 2.2 0 0 0
1904 1 27.267214 15.764421 4.346704 0.03213049 -0.13214514 0.99070949 2.2 0 0 0
1905 1 25.788014 14.324165 5.719380 -0.17785563 0.21914470 0.95934508 2.2 0 0 0
1906 1 27.277118 15.756406 7.083526 0.05691633 0.10434265 0.99291145 2.2 0 0 0
1907 1 25.733642 14.188799 8.544803 -0.41133180 -0.53278102 0.73956104 2.2 0 0 0
1908 1 27.252899 15.906141 10.102489 0.11826215 0.10798282 0.98709360 2.2 0 0 0
1909 1 26.007565 14.273799 11.337665 -0.41944085 -0.08606728 0.90369342 2.2 0 0 0
1910 1 27.193432 15.809195 12.807335 0.13335109 -0.04070906 0.99023243 2.2 0 0 0
1911 1 25.813672 14.266029 14.301432 0.26639914 -0.06206675 0.96186237 2.2 0 0 0
1912 1 27.175022 15.740836 15.876015 -0.39248227 0.55587684 0.73277460 2.2 0 0 0
1913 1 25.794960 14.316461 17.103139 0.12663073 0.96887489 0.21271134 2.2 0 0 0
1914 1 27.186411 15.777782 18.731125 0.35757760 -0.79200889 0.49483348 2.2 0 0 0
1915 1 25.869104 14.243797 20.023144 0.05128522 0.23112175 0.97157221 2.2 0 0 0
1916 1 27.191998 15.854467 21.549750 0.54586342 0.25576774 0.79788219 2.2 0 0 0
1917 1 25.814134 14.147571 23.009053 -0.13369921 0.93177939 0.33750807 2.2 0 0 0
1918 1 27.319061 15.817275 24.393300 0.52024721 -0.65569370 0.54718244 2.2 0 0 0
1919 1 25.752453 14.328024 25.714012 0.21379359 -0.53826855 0.81520505 2.2 0 0 0
1920 1 27.243604 15.735900 27.277964 0.24207108 0.00331209 0.97025287 2.2 0 0 0
1921 1 25.822193 17.192909 -0.023892 -0.13429270 0.53400224 0.83474971 2.2 0 0 0
1922 1 27.342047 18.634612 1.457653 -0.15504122 0.02716723 0.98753439 2.2 0 0 0
1923 1 25.766985 17.181592 2.846432 0.21282958 0.02189925 0.97684389 2.2 0 0 0
1924 1 27.124336 18.679457 4.306654 0.78060257 -0.26965593 0.56386640 2.2 0 0 0
1925 1 25.801016 17.245895 5.713385 -0.29898001 0.83821368 0.45607979 2.2 0 0 0
1926 1 27.289480 18.726061 7.230907 -0.18418049 0.14924753 0.97149510 2.2 0 0 0
1927 1 25.784551 17.119176 8.669005 -0.05546183 -0.32187064 0.94515780 2.2 0 0 0
1928 1 27.343512 18.520984 9.973468 -0.53535051 -0.40622356 0.74052836 2.2 0 0 0
1929 1 25.776551 17.145224 11.418329 -0.44940690 -0.73115346 0.51327191 2.2 0 0 0
1930 1 27.220423 18.561229 12.928384 -0.21807364 0.01327520 0.97584202 2.2 0 0 0
1931 1 25.859303 17.141402 14.288002 0.29810353 -0.16523526 0.94012318 2.2 0 0 0
1932 1 27.220721 18.752741 15.730421 0.13930541 0.39121295 0.90969579 2.2 0 0 0
1933 1 25.797820 17.176364 17.194484 -0.02293846 -0.32784692 0.94445234 2.2 0 0 0
1934 1 27.174175 18.590126 18.621729 -0.65895890 0.01325921 0.75206207 2.2 0 0 0
1935 1 25.798644 17.266930 19.993763 0.31752586 0.39540693 0.86187626 2.2 0 0 0
1936 1 27.285012 18.607398 21.404935 0.49647772 -0.00669164 0.86802367 2.2 0 0 0
1937 1 25.774890 17.227293 23.059722 0.25395038 -0.04370926 0.96622912 2.2 0 0 0
1938 1 27.217074 18.615401 24.427652 -0.39567673 -0.75960820 0.51617372 2.2 0 0 0
1939 1 25.794925 17.067870 25.813941 0.12527293 -0.22716433 0.96576553 2.2 0 0 0
1940 1 27.158344 18.655248 27.193265 0.27382807 0.61658419 0.73813422 2.2 0 0 0
1941 1 25.826334 20.024722 0.107435 -0.36218841 -0.09574352 0.92717460 2.2 0 0 0
1942 1 27.176697 21.548559 1.395566 0.20232696 0.86241069 0.46401681 2.2 0 0 0
1943 1 25.818812 19.998977 2.885865 0.27916367 0.43879935 0.85412105 2.2 0 0 0
1944 1 27.173701 21.453864 4.308794 0.38067534 0.07092106 0.92198508 2.2 0 0 0
1945 1 25.695833 20.068777 5.697725 0.68083407 -0.20776744 0.70235152 2.2 0 0 0
1946 1 27.246488 21.391502 7.034160 0.33687531 -0.12541846 0.93315874 2.2 0 0 0
1947 1 25.735024 20.132016 8.529833 0.45694593 -0.59375800 0.66230798 2.2 0 0 0
1948 1 27.315454 21.516173 9.969332 -0.30790956 -0.01310462 0.95132538 2.2 0 0 0
1949 1 25.820609 20.043300 11.491509 0.38693569 0.27648769 0.87967911 2.2 0 0 0
1950 1 27.216502 21.434558 12.777647 -0.45463461 -0.61015369 0.64886042 2.2 0 0 0
1951 1 25.656243 19.933060 14.392403 0.43556961 0.26657189 0.85977819 2.2 0 0 0
1952 1 27.124951 21.423412 15.791265 -0.48357310 -0.34779262 0.80324178 2.2 0 0 0
1953 1 25.792685 20.099060 17.141980 0.91758194 0.14196849 0.37133319 2.2 0 0 0
1954 1 27.273235 21.457848 18.561764 0.37007509 -0.01568393 0.92886944 2.2 0 0 0
1955 1 25.797625 20.060535 20.160825 0.15852671 -0.34906924 0.92359079 2.2 0 0 0
1956 1 27.242248 21.481596 21.460749 -0.37407270 -0.02462081 0.92707251 2.2 0 0 0
1957 1 25.766552 20.006282 22.982962 -0.22408689 -0.25040060 0.94185169 2.2 0 0 0
1958 1 27.142462 21.329133 24.412107 -0.17941627 0.55482576 0.81239041 2.2 0 0 0
1959 1 25.950694 20.147929 25.723531 -0.33113405 0.12027439 0.93588691 2.2 0 0 0
1960 1 27.033485 21.501607 27.225061 -0.09541206 -0.45606659 0.88481625 2.2 0 0 0
1961 1 25.826093 22.891139 0.038050 0.28632193 0.43216804 0.85513189 2.2 0 0 0
1962 1 27.176272 24.442002 1.489736 -0.25186183 0.14975058 0.95610689 2.2 0 0 0
1963 1 25.899398 22.963663 2.883109 -0.50573459 0.40185600 0.76337689 2.2 0 0 0
1964 1 27.236817 24.380924 4.420860 -0.43538588 0.56722060 0.69907076 2.2 0 0 0
1965 1 25.768265 22.852790 5.728945 0.49611050 -0.59356676 0.63368200 2.2 0 0 0
1966 1 27.254890 24.303550 7.103613 0.15115905 0.03875644 0.98774940 2.2 0 0 0
1967 1 25.856158 22.991601 8.532749 -0.21053200 -0.30138849 0.92996842 2.2 0 0 0
1968 1 27.237991 24.340176 10.186554 -0.45365692 -0.66774184 0.59018322 2.2 0 0 0
1969 1 25.767977 22.897577 11.507943 0.08649723 0.07677678 0.99328926 2.2 0 0 0
1970 1 27.249910 24.450561 12.964926 -0.54917924 -0.21287766 0.80813691 2.2 0 0 0
1971 1 25.847854 22.843021 14.295913 0.05848134 0.95034321 0.30565947 2.2 0 0 0
1972 1 27.382871 24.341713 15.753472 -0.51638640 0.12651800 0.84695825 2.2 0 0 0
1973 1 25.903582 22.864699 17.277978 0.58361158 0.08079623 0.80800340 2.2 0 0 0
1974 1 27.172203 24.403226 18.674717 0.48211453 -0.31075445 0.81914422 2.2 0 0 0
1975 1 25.713784 22.935434 20.095745 0.43134182 0.71214831 0.55388538 2.2 0 0 0
1976 1 27.196037 24.441330 21.473203 0.32848679 -0.46013196 0.82484848 2.2 0 0 0
1977 1 25.895426 22.897609 22.932010 -0.09430085 0.29418807 0.95108397 2.2 0 0 0
1978 1 27.303436 24.363947 24.313323 0.14474783 -0.46728611 0.87217645 2.2 0 0 0
1979 1 25.852951 22.955443 25.685150 0.42003890 -0.37379825 0.82694752 2.2 0 0 0
1980 1 27.370041 24.328047 27.140119 -0.17728587 -0.02344860 0.98388001 2.2 0 0 0
1981 1 25.771763 25.834918 0.089123 0.22572537 -0.30660121 0.92468576 2.2 0 0 0
1982 1 27.337213 27.293679 1.529268 -0.38618211 -0.39662054 0.83279981 2.2 0 0 0
1983 1 25.671358 25.821051 2.833763 0.26457941 -0.06870891 0.96191310 2.2 0 0 0
1984 1 27.247929 27.232970 4.357716 0.18674343 -0.36569911 0.91180648 2.2 0 0 0
1985 1 25.706687 25.814470 5.751477 -0.17509910 0.48426201 0.85722261 2.2 0 0 0
1986 1 27.203893 27.174109 7.120957 0.43156354 0.71143399 0.55463014 2.2 0 0 0
1987 1 26.015369 25.864102 8.619188 -0.81172511 -0.00965196 0.58395992 2.2 0 0 0
1988 1 27.238659 27.198540 10.093567 0.11945553 0.06085906 0.99097253 2.2 0 0 0
1989 1 25.804339 25.851199 11.362138 -0.23170415 0.46580659 0.85401253 2.2 0 0 0
1990 1 27.224458 27.353886 12.783290 0.08732587 0.16755960 0.98198675 2.2 0 0 0
1991 1 25.835139 25.735407 14.233650 -0.70257481 0.06323134 0.70879505 2.2 0 0 0
1992 1 27.203290 27.255940 15.774899 -0.22366855 -0.61108499 0.75930726 2.2 0 0 0
1993 1 25.779256 25.877204 17.232303 -0.21297397 -0.13988201 0.96699282 2.2 0 0 0
1994 1 27.305203 27.332484 18.587108 -0.13370527 -0.11123625 0.98475855 2.2 0 0 0
1995 1 25.733503 25.816637 20.113405 -0.51703637 0.39183302 0.76101266 2.2 0 0 0
1996 1 27.340671 27.183141 21.326078 -0.20488922 0.07117039 0.97619424 2.2 0 0 0
1997 1 25.736221 25.857557 22.781094 -0.32909042 -0.37746331 0.86557550 2.2 0 0 0
1998 1 27.262143 27.264717 24.390363 -0.43014760 0.68199290 0.59148857 2.2 0 0 0
1999 1 25.777503 25.833394 25.904567 0.17301516 0.00022553 0.98491913 2.2 0 0 0
2000 1 27.215502 27.220346 27.325818 0.39326654 -0.87072226 0.29526967 2.2 0 0 0
