LAMMPS data file via 3DSCalculator tools/make_lammps_examples.py (triple-q skyrmion lattice in a triangular Fe monolayer), units = metal

3600 atoms
1 atom types

0.0 150.000000 xlo xhi
0.0 129.903811 ylo yhi
0.0 5.000000 zlo zhi
75.000000 0.000000 0.000000 xy xz yz

Masses

1 55.845 # Fe

Atoms # spin

1 1 0.937500 0.541266 2.500000 0.00000000 0.00000000 -1.00000000 2.5 0 0 0
2 1 2.187500 2.706329 2.500000 -0.37518063 0.21661064 -0.90128759 2.5 0 0 0
3 1 3.437500 4.871393 2.500000 -0.71656692 0.41371011 -0.56158329 2.5 0 0 0
4 1 4.687500 7.036456 2.500000 -0.86381072 0.49872135 0.07147071 2.5 0 0 0
5 1 5.937500 9.201520 2.500000 -0.58307814 0.33664032 0.73938702 2.5 0 0 0
6 1 7.187500 11.366583 2.500000 -0.00000000 0.00000000 1.00000000 2.5 0 0 0
7 1 8.437500 13.531647 2.500000 0.58307814 -0.33664032 0.73938702 2.5 0 0 0
8 1 9.687500 15.696710 2.500000 0.86381072 -0.49872135 0.07147071 2.5 0 0 0
9 1 10.937500 17.861774 2.500000 0.71656692 -0.41371011 -0.56158329 2.5 0 0 0
10 1 12.187500 20.026837 2.500000 0.37518063 -0.21661064 -0.90128759 2.5 0 0 0
11 1 13.437500 22.191901 2.500000 0.00000000 0.00000000 -1.00000000 2.5 0 0 0
12 1 14.687500 24.356964 2.500000 -0.37518063 0.21661064 -0.90128759 2.5 0 0 0
13 1 15.937500 26.522028 2.500000 -0.71656692 0.41371011 -0.56158329 2.5 0 0 0
14 1 17.187500 28.687092 2.500000 -0.86381072 0.49872135 0.07147071 2.5 0 0 0
15 1 18.437500 30.852155 2.500000 -0.58307814 0.33664032 0.73938702 2.5 0 0 0
16 1 19.687500 33.017219 2.500000 -0.00000000 0.00000000 1.00000000 2.5 0 0 0
17 1 20.937500 35.182282 2.500000 0.58307814 -0.33664032 0.73938702 2.5 0 0 0
18 1 22.187500 37.347346 2.500000 0.86381072 -0.49872135 0.07147071 2.5 0 0 0
19 1 23.437500 39.512409 2.500000 0.71656692 -0.41371011 -0.56158329 2.5 0 0 0
20 1 24.687500 41.677473 2.500000 0.37518063 -0.21661064 -0.90128759 2.5 0 0 0
21 1 25.937500 43.842536 2.500000 0.00000000 0.00000000 -1.00000000 2.5 0 0 0
22 1 27.187500 46.007600 2.500000 -0.37518063 0.21661064 -0.90128759 2.5 0 0 0
23 1 28.437500 48.172663 2.500000 -0.71656692 0.41371011 -0.56158329 2.5 0 0 0
24 1 29.687500 50.337727 2.500000 -0.86381072 0.49872135 0.07147071 2.5 0 0 0
25 1 30.937500 52.502790 2.500000 -0.58307814 0.33664032 0.73938702 2.5 0 0 0
26 1 32.187500 54.667854 2.500000 0.00000000 -0.00000000 1.00000000 2.5 0 0 0
27 1 33.437500 56.832917 2.500000 0.58307814 -0.33664032 0.73938702 2.5 0 0 0
28 1 34.687500 58.997981 2.500000 0.86381072 -0.49872135 0.07147071 2.5 0 0 0
29 1 35.937500 61.163044 2.500000 0.71656692 -0.41371011 -0.56158329 2.5 0 0 0
30 1 37.187500 63.328108 2.500000 0.37518063 -0.21661064 -0.90128759 2.5 0 0 0
31 1 38.437500 65.493171 2.500000 0.00000000 -0.00000000 -1.00000000 2.5 0 0 0
32 1 39.687500 67.658235 2.500000 -0.37518063 0.21661064 -0.90128759 2.5 0 0 0
33 1 40.937500 69.823298 2.500000 -0.71656692 0.41371011 -0.56158329 2.5 0 0 0
34 1 42.187500 71.988362 2.500000 -0.86381072 0.49872135 0.07147071 2.5 0 0 0
35 1 43.437500 74.153425 2.500000 -0.58307814 0.33664032 0.73938702 2.5 0 0 0
36 1 44.687500 76.318489 2.500000 0.00000000 -0.00000000 1.00000000 2.5 0 0 0
37 1 45.937500 78.483552 2.500000 0.58307814 -0.33664032 0.73938702 2.5 0 0 0
38 1 47.187500 80.648616 2.500000 0.86381072 -0.49872135 0.07147071 2.5 0 0 0
39 1 48.437500 82.813679 2.500000 0.71656692 -0.41371011 -0.56158329 2.5 0 0 0
40 1 49.687500 84.978743 2.500000 0.37518063 -0.21661064 -0.90128759 2.5 0 0 0
41 1 50.937500 87.143806 2.500000 0.00000000 0.00000000 -1.00000000 2.5 0 0 0
42 1 52.187500 89.308870 2.500000 -0.37518063 0.21661064 -0.90128759 2.5 0 0 0
43 1 53.437500 91.473933 2.500000 -0.71656692 0.41371011 -0.56158329 2.5 0 0 0
44 1 54.687500 93.638997 2.500000 -0.86381072 0.49872135 0.07147071 2.5 0 0 0
45 1 55.937500 95.804060 2.500000 -0.58307814 0.33664032 0.73938702 2.5 0 0 0
46 1 57.187500 97.969124 2.500000 0.00000000 -0.00000000 1.00000000 2.5 0 0 0
47 1 58.437500 100.134187 2.500000 0.58307814 -0.33664032 0.73938702 2.5 0 0 0
48 1 59.687500 102.299251 2.500000 0.86381072 -0.49872135 0.07147071 2.5 0 0 0
49 1 60.937500 104.464314 2.500000 0.71656692 -0.41371011 -0.56158329 2.5 0 0 0
50 1 62.187500 106.629378 2.500000 0.37518063 -0.21661064 -0.90128759 2.5 0 0 0
51 1 63.437500 108.794441 2.500000 -0.00000000 0.00000000 -1.00000000 2.5 0 0 0
52 1 64.687500 110.959505 2.500000 -0.37518063 0.21661064 -0.90128759 2.5 0 0 0
53 1 65.937500 113.124568 2.500000 -0.71656692 0.41371011 -0.56158329 2.5 0 0 0
54 1 67.187500 115.289632 2.500000 -0.86381072 0.49872135 0.07147071 2.5 0 0 0
55 1 68.437500 117.454695 2.500000 -0.58307814 0.33664032 0.73938702 2.5 0 0 0
56 1 69.687500 119.619759 2.500000 0.00000000 -0.00000000 1.00000000 2.5 0 0 0
57 1 70.937500 121.784822 2.500000 0.58307814 -0.33664032 0.73938702 2.5 0 0 0
58 1 72.187500 123.949886 2.500000 0.86381072 -0.49872135 0.07147071 2.5 0 0 0
59 1 73.437500 126.114949 2.500000 0.71656692 -0.41371011 -0.56158329 2.5 0 0 0
60 1 74.687500 128.280013 2.500000 0.37518063 -0.21661064 -0.90128759 2.5 0 0 0
61 1 3.437500 0.541266 2.500000 0.00000000 0.43322128 -0.90128759 2.5 0 0 0
62 1 4.687500 2.706329 2.500000 -0.36661923 0.63500314 -0.67997158 2.5 0 0 0
63 1 5.937500 4.871393 2.500000 -0.63774350 0.75034112 -0.17398689 2.5 0 0 0
64 1 7.187500 7.036456 2.500000 -0.59033226 0.63193078 0.50216662 2.5 0 0 0
65 1 8.437500 9.201520 2.500000 -0.18242270 0.31596539 0.93106811 2.5 0 0 0
66 1 9.687500 11.366583 2.500000 0.36484540 0.00000000 0.93106811 2.5 0 0 0
67 1 10.937500 13.531647 2.500000 0.84243424 -0.19527735 0.50216662 2.5 0 0 0
68 1 12.187500 15.696710 2.500000 0.96868622 -0.17713151 -0.17398689 2.5 0 0 0
69 1 13.437500 17.861774 2.500000 0.73323847 0.00000000 -0.67997158 2.5 0 0 0
70 1 14.687500 20.026837 2.500000 0.37518063 0.21661064 -0.90128759 2.5 0 0 0
71 1 15.937500 22.191901 2.500000 0.00000000 0.43322128 -0.90128759 2.5 0 0 0
72 1 17.187500 24.356964 2.500000 -0.36661923 0.63500314 -0.67997158 2.5 0 0 0
73 1 18.437500 26.522028 2.500000 -0.63774350 0.75034112 -0.17398689 2.5 0 0 0
74 1 19.687500 28.687092 2.500000 -0.59033226 0.63193078 0.50216662 2.5 0 0 0
75 1 20.937500 30.852155 2.500000 -0.18242270 0.31596539 0.93106811 2.5 0 0 0
76 1 22.187500 33.017219 2.500000 0.36484540 0.00000000 0.93106811 2.5 0 0 0
77 1 23.437500 35.182282 2.500000 0.84243424 -0.19527735 0.50216662 2.5 0 0 0
78 1 24.687500 37.347346 2.500000 0.96868622 -0.17713151 -0.17398689 2.5 0 0 0
79 1 25.937500 39.512409 2.500000 0.73323847 0.00000000 -0.67997158 2.5 0 0 0
80 1 27.187500 41.677473 2.500000 0.37518063 0.21661064 -0.90128759 2.5 0 0 0
81 1 28.437500 43.842536 2.500000 0.00000000 0.43322128 -0.90128759 2.5 0 0 0
82 1 29.687500 46.007600 2.500000 -0.36661923 0.63500314 -0.67997158 2.5 0 0 0
83 1 30.937500 48.172663 2.500000 -0.63774350 0.75034112 -0.17398689 2.5 0 0 0
84 1 32.187500 50.337727 2.500000 -0.59033226 0.63193078 0.50216662 2.5 0 0 0
85 1 33.437500 52.502790 2.500000 -0.18242270 0.31596539 0.93106811 2.5 0 0 0
86 1 34.687500 54.667854 2.500000 0.36484540 -0.00000000 0.93106811 2.5 0 0 0
87 1 35.937500 56.832917 2.500000 0.84243424 -0.19527735 0.50216662 2.5 0 0 0
88 1 37.187500 58.997981 2.500000 0.96868622 -0.17713151 -0.17398689 2.5 0 0 0
89 1 38.437500 61.163044 2.500000 0.73323847 0.00000000 -0.67997158 2.5 0 0 0
90 1 39.687500 63.328108 2.500000 0.37518063 0.21661064 -0.90128759 2.5 0 0 0
91 1 40.937500 65.493171 2.500000 0.00000000 0.43322128 -0.90128759 2.5 0 0 0
92 1 42.187500 67.658235 2.500000 -0.36661923 0.63500314 -0.67997158 2.5 0 0 0
93 1 43.437500 69.823298 2.500000 -0.63774350 0.75034112 -0.17398689 2.5 0 0 0
94 1 44.687500 71.988362 2.500000 -0.59033226 0.63193078 0.50216662 2.5 0 0 0
95 1 45.937500 74.153425 2.500000 -0.18242270 0.31596539 0.93106811 2.5 0 0 0
96 1 47.187500 76.318489 2.500000 0.36484540 0.00000000 0.93106811 2.5 0 0 0
97 1 48.437500 78.483552 2.500000 0.84243424 -0.19527735 0.50216662 2.5 0 0 0
98 1 49.687500 80.648616 2.500000 0.96868622 -0.17713151 -0.17398689 2.5 0 0 0
99 1 50.937500 82.813679 2.500000 0.73323847 0.00000000 -0.67997158 2.5 0 0 0
100 1 52.187500 84.978743 2.500000 0.37518063 0.21661064 -0.90128759 2.5 0 0 0
101 1 53.437500 87.143806 2.500000 0.00000000 0.43322128 -0.90128759 2.5 0 0 0
102 1 54.687500 89.308870 2.500000 -0.36661923 0.63500314 -0.67997158 2.5 0 0 0
103 1 55.937500 91.473933 2.500000 -0.63774350 0.75034112 -0.17398689 2.5 0 0 0
104 1 57.187500 93.638997 2.500000 -0.59033226 0.63193078 0.50216662 2.5 0 0 0
105 1 58.437500 95.804060 2.500000 -0.18242270 0.31596539 0.93106811 2.5 0 0 0
106 1 59.687500 97.969124 2.500000 0.36484540 0.00000000 0.93106811 2.5 0 0 0
107 1 60.937500 100.134187 2.500000 0.84243424 -0.19527735 0.50216662 2.5 0 0 0
108 1 62.187500 102.299251 2.500000 0.96868622 -0.17713151 -0.17398689 2.5 0 0 0
109 1 63.437500 104.464314 2.500000 0.73323847 0.00000000 -0.67997158 2.5 0 0 0
110 1 64.687500 106.629378 2.500000 0.37518063 0.21661064 -0.90128759 2.5 0 0 0
111 1 65.937500 108.794441 2.500000 -0.00000000 0.43322128 -0.90128759 2.5 0 0 0
112 1 67.187500 110.959505 2.500000 -0.36661923 0.63500314 -0.67997158 2.5 0 0 0
113 1 68.437500 113.124568 2.500000 -0.63774350 0.75034112 -0.17398689 2.5 0 0 0
114 1 69.687500 115.289632 2.500000 -0.59033226 0.63193078 0.50216662 2.5 0 0 0
115 1 70.937500 117.454695 2.500000 -0.18242270 0.31596539 0.93106811 2.5 0 0 0
116 1 72.187500 119.619759 2.500000 0.36484540 0.00000000 0.93106811 2.5 0 0 0
117 1 73.437500 121.784822 2.500000 0.84243424 -0.19527735 0.50216662 2.5 0 0 0
118 1 74.687500 123.949886 2.500000 0.96868622 -0.17713151 -0.17398689 2.5 0 0 0
119 1 75.937500 126.114949 2.500000 0.73323847 -0.00000000 -0.67997158 2.5 0 0 0
120 1 77.187500 128.280013 2.500000 0.37518063 0.21661064 -0.90128759 2.5 0 0 0
121 1 5.937500 0.541266 2.500000 0.00000000 0.82742021 -0.56158329 2.5 0 0 0
122 1 7.187500 2.706329 2.500000 -0.33094272 0.92747263 -0.17398689 2.5 0 0 0
123 1 8.437500 4.871393 2.500000 -0.45612652 0.79003431 0.40962714 2.5 0 0 0
124 1 9.687500 7.036456 2.500000 -0.26773829 0.46373631 0.84455008 2.5 0 0 0
125 1 10.937500 9.201520 2.500000 0.09844051 0.17050396 0.98042739 2.5 0 0 0
126 1 12.187500 11.366583 2.500000 0.53547657 0.00000000 0.84455008 2.5 0 0 0
127 1 13.437500 13.531647 2.500000 0.91225304 0.00000000 0.40962714 2.5 0 0 0
128 1 14.687500 15.696710 2.500000 0.96868622 0.17713151 -0.17398689 2.5 0 0 0
129 1 15.937500 17.861774 2.500000 0.71656692 0.41371011 -0.56158329 2.5 0 0 0
130 1 17.187500 20.026837 2.500000 0.36661923 0.63500314 -0.67997158 2.5 0 0 0
131 1 18.437500 22.191901 2.500000 0.00000000 0.82742021 -0.56158329 2.5 0 0 0
132 1 19.687500 24.356964 2.500000 -0.33094272 0.92747263 -0.17398689 2.5 0 0 0
133 1 20.937500 26.522028 2.500000 -0.45612652 0.79003431 0.40962714 2.5 0 0 0
134 1 22.187500 28.687092 2.500000 -0.26773829 0.46373631 0.84455008 2.5 0 0 0
135 1 23.437500 30.852155 2.500000 0.09844051 0.17050396 0.98042739 2.5 0 0 0
136 1 24.687500 33.017219 2.500000 0.53547657 0.00000000 0.84455008 2.5 0 0 0
137 1 25.937500 35.182282 2.500000 0.91225304 0.00000000 0.40962714 2.5 0 0 0
138 1 27.187500 37.347346 2.500000 0.96868622 0.17713151 -0.17398689 2.5 0 0 0
139 1 28.437500 39.512409 2.500000 0.71656692 0.41371011 -0.56158329 2.5 0 0 0
140 1 29.687500 41.677473 2.500000 0.36661923 0.63500314 -0.67997158 2.5 0 0 0
141 1 30.937500 43.842536 2.500000 0.00000000 0.82742021 -0.56158329 2.5 0 0 0
142 1 32.187500 46.007600 2.500000 -0.33094272 0.92747263 -0.17398689 2.5 0 0 0
143 1 33.437500 48.172663 2.500000 -0.45612652 0.79003431 0.40962714 2.5 0 0 0
144 1 34.687500 50.337727 2.500000 -0.26773829 0.46373631 0.84455008 2.5 0 0 0
145 1 35.937500 52.502790 2.500000 0.09844051 0.17050396 0.98042739 2.5 0 0 0
146 1 37.187500 54.667854 2.500000 0.53547657 -0.00000000 0.84455008 2.5 0 0 0
147 1 38.437500 56.832917 2.500000 0.91225304 -0.00000000 0.40962714 2.5 0 0 0
148 1 39.687500 58.997981 2.500000 0.96868622 0.17713151 -0.17398689 2.5 0 0 0
149 1 40.937500 61.163044 2.500000 0.71656692 0.41371011 -0.56158329 2.5 0 0 0
150 1 42.187500 63.328108 2.500000 0.36661923 0.63500314 -0.67997158 2.5 0 0 0
151 1 43.437500 65.493171 2.500000 0.00000000 0.82742021 -0.56158329 2.5 0 0 0
152 1 44.687500 67.658235 2.500000 -0.33094272 0.92747263 -0.17398689 2.5 0 0 0
153 1 45.937500 69.823298 2.500000 -0.45612652 0.79003431 0.40962714 2.5 0 0 0
154 1 47.187500 71.988362 2.500000 -0.26773829 0.46373631 0.84455008 2.5 0 0 0
155 1 48.437500 74.153425 2.500000 0.09844051 0.17050396 0.98042739 2.5 0 0 0
156 1 49.687500 76.318489 2.500000 0.53547657 -0.00000000 0.84455008 2.5 0 0 0
157 1 50.937500 78.483552 2.500000 0.91225304 0.00000000 0.40962714 2.5 0 0 0
158 1 52.187500 80.648616 2.500000 0.96868622 0.17713151 -0.17398689 2.5 0 0 0
159 1 53.437500 82.813679 2.500000 0.71656692 0.41371011 -0.56158329 2.5 0 0 0
160 1 54.687500 84.978743 2.500000 0.36661923 0.63500314 -0.67997158 2.5 0 0 0
161 1 55.937500 87.143806 2.500000 0.00000000 0.82742021 -0.56158329 2.5 0 0 0
162 1 57.187500 89.308870 2.500000 -0.33094272 0.92747263 -0.17398689 2.5 0 0 0
163 1 58.437500 91.473933 2.500000 -0.45612652 0.79003431 0.40962714 2.5 0 0 0
164 1 59.687500 93.638997 2.500000 -0.26773829 0.46373631 0.84455008 2.5 0 0 0
165 1 60.937500 95.804060 2.500000 0.09844051 0.17050396 0.98042739 2.5 0 0 0
166 1 62.187500 97.969124 2.500000 0.53547657 -0.00000000 0.84455008 2.5 0 0 0
167 1 63.437500 100.134187 2.500000 0.91225304 0.00000000 0.40962714 2.5 0 0 0
168 1 64.687500 102.299251 2.500000 0.96868622 0.17713151 -0.17398689 2.5 0 0 0
169 1 65.937500 104.464314 2.500000 0.71656692 0.41371011 -0.56158329 2.5 0 0 0
170 1 67.187500 106.629378 2.500000 0.36661923 0.63500314 -0.67997158 2.5 0 0 0
171 1 68.437500 108.794441 2.500000 -0.00000000 0.82742021 -0.56158329 2.5 0 0 0
172 1 69.687500 110.959505 2.500000 -0.33094272 0.92747263 -0.17398689 2.5 0 0 0
173 1 70.937500 113.124568 2.500000 -0.45612652 0.79003431 0.40962714 2.5 0 0 0
174 1 72.187500 115.289632 2.500000 -0.26773829 0.46373631 0.84455008 2.5 0 0 0
175 1 73.437500 117.454695 2.500000 0.09844051 0.17050396 0.98042739 2.5 0 0 0
176 1 74.687500 119.619759 2.500000 0.53547657 -0.00000000 0.84455008 2.5 0 0 0
177 1 75.937500 121.784822 2.500000 0.91225304 0.00000000 0.40962714 2.5 0 0 0
178 1 77.187500 123.949886 2.500000 0.96868622 0.17713151 -0.17398689 2.5 0 0 0
179 1 78.437500 126.114949 2.500000 0.71656692 0.41371011 -0.56158329 2.5 0 0 0
180 1 79.687500 128.280013 2.500000 0.36661923 0.63500314 -0.67997158 2.5 0 0 0
181 1 8.437500 0.541266 2.500000 0.00000000 0.99744270 0.07147071 2.5 0 0 0
182 1 9.687500 2.706329 2.500000 -0.25210197 0.82720813 0.50216662 2.5 0 0 0
183 1 10.937500 4.871393 2.500000 -0.26773829 0.46373631 0.84455008 2.5 0 0 0
184 1 12.187500 7.036456 2.500000 -0.09262434 0.16043006 0.98269167 2.5 0 0 0
185 1 13.437500 9.201520 2.500000 0.18524868 -0.00000000 0.98269167 2.5 0 0 0
186 1 14.687500 11.366583 2.500000 0.53547657 -0.00000000 0.84455008 2.5 0 0 0
187 1 15.937500 13.531647 2.500000 0.84243424 0.19527735 0.50216662 2.5 0 0 0
188 1 17.187500 15.696710 2.500000 0.86381072 0.49872135 0.07147071 2.5 0 0 0
189 1 18.437500 17.861774 2.500000 0.63774350 0.75034112 -0.17398689 2.5 0 0 0
190 1 19.687500 20.026837 2.500000 0.33094272 0.92747263 -0.17398689 2.5 0 0 0
191 1 20.937500 22.191901 2.500000 0.00000000 0.99744270 0.07147071 2.5 0 0 0
192 1 22.187500 24.356964 2.500000 -0.25210197 0.82720813 0.50216662 2.5 0 0 0
193 1 23.437500 26.522028 2.500000 -0.26773829 0.46373631 0.84455008 2.5 0 0 0
194 1 24.687500 28.687092 2.500000 -0.09262434 0.16043006 0.98269167 2.5 0 0 0
195 1 25.937500 30.852155 2.500000 0.18524868 -0.00000000 0.98269167 2.5 0 0 0
196 1 27.187500 33.017219 2.500000 0.53547657 -0.00000000 0.84455008 2.5 0 0 0
197 1 28.437500 35.182282 2.500000 0.84243424 0.19527735 0.50216662 2.5 0 0 0
198 1 29.687500 37.347346 2.500000 0.86381072 0.49872135 0.07147071 2.5 0 0 0
199 1 30.937500 39.512409 2.500000 0.63774350 0.75034112 -0.17398689 2.5 0 0 0
200 1 32.187500 41.677473 2.500000 0.33094272 0.92747263 -0.17398689 2.5 0 0 0
201 1 33.437500 43.842536 2.500000 0.00000000 0.99744270 0.07147071 2.5 0 0 0
202 1 34.687500 46.007600 2.500000 -0.25210197 0.82720813 0.50216662 2.5 0 0 0
203 1 35.937500 48.172663 2.500000 -0.26773829 0.46373631 0.84455008 2.5 0 0 0
204 1 37.187500 50.337727 2.500000 -0.09262434 0.16043006 0.98269167 2.5 0 0 0
205 1 38.437500 52.502790 2.500000 0.18524868 0.00000000 0.98269167 2.5 0 0 0
206 1 39.687500 54.667854 2.500000 0.53547657 0.00000000 0.84455008 2.5 0 0 0
207 1 40.937500 56.832917 2.500000 0.84243424 0.19527735 0.50216662 2.5 0 0 0
208 1 42.187500 58.997981 2.500000 0.86381072 0.49872135 0.07147071 2.5 0 0 0
209 1 43.437500 61.163044 2.500000 0.63774350 0.75034112 -0.17398689 2.5 0 0 0
210 1 44.687500 63.328108 2.500000 0.33094272 0.92747263 -0.17398689 2.5 0 0 0
211 1 45.937500 65.493171 2.500000 0.00000000 0.99744270 0.07147071 2.5 0 0 0
212 1 47.187500 67.658235 2.500000 -0.25210197 0.82720813 0.50216662 2.5 0 0 0
213 1 48.437500 69.823298 2.500000 -0.26773829 0.46373631 0.84455008 2.5 0 0 0
214 1 49.687500 71.988362 2.500000 -0.09262434 0.16043006 0.98269167 2.5 0 0 0
215 1 50.937500 74.153425 2.500000 0.18524868 -0.00000000 0.98269167 2.5 0 0 0
216 1 52.187500 76.318489 2.500000 0.53547657 -0.00000000 0.84455008 2.5 0 0 0
217 1 53.437500 78.483552 2.500000 0.84243424 0.19527735 0.50216662 2.5 0 0 0
218 1 54.687500 80.648616 2.500000 0.86381072 0.49872135 0.07147071 2.5 0 0 0
219 1 55.937500 82.813679 2.500000 0.63774350 0.75034112 -0.17398689 2.5 0 0 0
220 1 57.187500 84.978743 2.500000 0.33094272 0.92747263 -0.17398689 2.5 0 0 0
221 1 58.437500 87.143806 2.500000 0.00000000 0.99744270 0.07147071 2.5 0 0 0
222 1 59.687500 89.308870 2.500000 -0.25210197 0.82720813 0.50216662 2.5 0 0 0
223 1 60.937500 91.473933 2.500000 -0.26773829 0.46373631 0.84455008 2.5 0 0 0
224 1 62.187500 93.638997 2.500000 -0.09262434 0.16043006 0.98269167 2.5 0 0 0
225 1 63.437500 95.804060 2.500000 0.18524868 -0.00000000 0.98269167 2.5 0 0 0
226 1 64.687500 97.969124 2.500000 0.53547657 -0.00000000 0.84455008 2.5 0 0 0
227 1 65.937500 100.134187 2.500000 0.84243424 0.19527735 0.50216662 2.5 0 0 0
228 1 67.187500 102.299251 2.500000 0.86381072 0.49872135 0.07147071 2.5 0 0 0
229 1 68.437500 104.464314 2.500000 0.63774350 0.75034112 -0.17398689 2.5 0 0 0
230 1 69.687500 106.629378 2.500000 0.33094272 0.92747263 -0.17398689 2.5 0 0 0
231 1 70.937500 108.794441 2.500000 -0.00000000 0.99744270 0.07147071 2.5 0 0 0
232 1 72.187500 110.959505 2.500000 -0.25210197 0.82720813 0.50216662 2.5 0 0 0
233 1 73.437500 113.124568 2.500000 -0.26773829 0.46373631 0.84455008 2.5 0 0 0
234 1 74.687500 115.289632 2.500000 -0.09262434 0.16043006 0.98269167 2.5 0 0 0
235 1 75.937500 117.454695 2.500000 0.18524868 -0.00000000 0.98269167 2.5 0 0 0
236 1 77.187500 119.619759 2.500000 0.53547657 0.00000000 0.84455008 2.5 0 0 0
237 1 78.437500 121.784822 2.500000 0.84243424 0.19527735 0.50216662 2.5 0 0 0
238 1 79.687500 123.949886 2.500000 0.86381072 0.49872135 0.07147071 2.5 0 0 0
239 1 80.937500 126.114949 2.500000 0.63774350 0.75034112 -0.17398689 2.5 0 0 0
240 1 82.187500 128.280013 2.500000 0.33094272 0.92747263 -0.17398689 2.5 0 0 0
241 1 10.937500 0.541266 2.500000 0.00000000 0.67328065 0.73938702 2.5 0 0 0
242 1 12.187500 2.706329 2.500000 -0.18242270 0.31596539 0.93106811 2.5 0 0 0
243 1 13.437500 4.871393 2.500000 -0.19688101 -0.00000000 0.98042739 2.5 0 0 0
244 1 14.687500 7.036456 2.500000 -0.09262434 -0.16043006 0.98269167 2.5 0 0 0
245 1 15.937500 9.201520 2.500000 0.09844051 -0.17050396 0.98042739 2.5 0 0 0
246 1 17.187500 11.366583 2.500000 0.36484540 -0.00000000 0.93106811 2.5 0 0 0
247 1 18.437500 13.531647 2.500000 0.58307814 0.33664032 0.73938702 2.5 0 0 0
248 1 19.687500 15.696710 2.500000 0.59033226 0.63193078 0.50216662 2.5 0 0 0
249 1 20.937500 17.861774 2.500000 0.45612652 0.79003431 0.40962714 2.5 0 0 0
250 1 22.187500 20.026837 2.500000 0.25210197 0.82720813 0.50216662 2.5 0 0 0
251 1 23.437500 22.191901 2.500000 -0.00000000 0.67328065 0.73938702 2.5 0 0 0
252 1 24.687500 24.356964 2.500000 -0.18242270 0.31596539 0.93106811 2.5 0 0 0
253 1 25.937500 26.522028 2.500000 -0.19688101 -0.00000000 0.98042739 2.5 0 0 0
254 1 27.187500 28.687092 2.500000 -0.09262434 -0.16043006 0.98269167 2.5 0 0 0
255 1 28.437500 30.852155 2.500000 0.09844051 -0.17050396 0.98042739 2.5 0 0 0
256 1 29.687500 33.017219 2.500000 0.36484540 -0.00000000 0.93106811 2.5 0 0 0
257 1 30.937500 35.182282 2.500000 0.58307814 0.33664032 0.73938702 2.5 0 0 0
258 1 32.187500 37.347346 2.500000 0.59033226 0.63193078 0.50216662 2.5 0 0 0
259 1 33.437500 39.512409 2.500000 0.45612652 0.79003431 0.40962714 2.5 0 0 0
260 1 34.687500 41.677473 2.500000 0.25210197 0.82720813 0.50216662 2.5 0 0 0
261 1 35.937500 43.842536 2.500000 0.00000000 0.67328065 0.73938702 2.5 0 0 0
262 1 37.187500 46.007600 2.500000 -0.18242270 0.31596539 0.93106811 2.5 0 0 0
263 1 38.437500 48.172663 2.500000 -0.19688101 0.00000000 0.98042739 2.5 0 0 0
264 1 39.687500 50.337727 2.500000 -0.09262434 -0.16043006 0.98269167 2.5 0 0 0
265 1 40.937500 52.502790 2.500000 0.09844051 -0.17050396 0.98042739 2.5 0 0 0
266 1 42.187500 54.667854 2.500000 0.36484540 0.00000000 0.93106811 2.5 0 0 0
267 1 43.437500 56.832917 2.500000 0.58307814 0.33664032 0.73938702 2.5 0 0 0
268 1 44.687500 58.997981 2.500000 0.59033226 0.63193078 0.50216662 2.5 0 0 0
269 1 45.937500 61.163044 2.500000 0.45612652 0.79003431 0.40962714 2.5 0 0 0
270 1 47.187500 63.328108 2.500000 0.25210197 0.82720813 0.50216662 2.5 0 0 0
271 1 48.437500 65.493171 2.500000 -0.00000000 0.67328065 0.73938702 2.5 0 0 0
272 1 49.687500 67.658235 2.500000 -0.18242270 0.31596539 0.93106811 2.5 0 0 0
273 1 50.937500 69.823298 2.500000 -0.19688101 -0.00000000 0.98042739 2.5 0 0 0
274 1 52.187500 71.988362 2.500000 -0.09262434 -0.16043006 0.98269167 2.5 0 0 0
275 1 53.437500 74.153425 2.500000 0.09844051 -0.17050396 0.98042739 2.5 0 0 0
276 1 54.687500 76.318489 2.500000 0.36484540 0.00000000 0.93106811 2.5 0 0 0
277 1 55.937500 78.483552 2.500000 0.58307814 0.33664032 0.73938702 2.5 0 0 0
278 1 57.187500 80.648616 2.500000 0.59033226 0.63193078 0.50216662 2.5 0 0 0
279 1 58.437500 82.813679 2.500000 0.45612652 0.79003431 0.40962714 2.5 0 0 0
280 1 59.687500 84.978743 2.500000 0.25210197 0.82720813 0.50216662 2.5 0 0 0
281 1 60.937500 87.143806 2.500000 -0.00000000 0.67328065 0.73938702 2.5 0 0 0
282 1 62.187500 89.308870 2.500000 -0.18242270 0.31596539 0.93106811 2.5 0 0 0
283 1 63.437500 91.473933 2.500000 -0.19688101 -0.00000000 0.98042739 2.5 0 0 0
284 1 64.687500 93.638997 2.500000 -0.09262434 -0.16043006 0.98269167 2.5 0 0 0
285 1 65.937500 95.804060 2.500000 0.09844051 -0.17050396 0.98042739 2.5 0 0 0
286 1 67.187500 97.969124 2.500000 0.36484540 0.00000000 0.93106811 2.5 0 0 0
287 1 68.437500 100.134187 2.500000 0.58307814 0.33664032 0.73938702 2.5 0 0 0
288 1 69.687500 102.299251 2.500000 0.59033226 0.63193078 0.50216662 2.5 0 0 0
289 1 70.937500 104.464314 2.500000 0.45612652 0.79003431 0.40962714 2.5 0 0 0
290 1 72.187500 106.629378 2.500000 0.25210197 0.82720813 0.50216662 2.5 0 0 0
291 1 73.437500 108.794441 2.500000 -0.00000000 0.67328065 0.73938702 2.5 0 0 0
292 1 74.687500 110.959505 2.500000 -0.18242270 0.31596539 0.93106811 2.5 0 0 0
293 1 75.937500 113.124568 2.500000 -0.19688101 0.00000000 0.98042739 2.5 0 0 0
294 1 77.187500 115.289632 2.500000 -0.09262434 -0.16043006 0.98269167 2.5 0 0 0
295 1 78.437500 117.454695 2.500000 0.09844051 -0.17050396 0.98042739 2.5 0 0 0
296 1 79.687500 119.619759 2.500000 0.36484540 0.00000000 0.93106811 2.5 0 0 0
297 1 80.937500 121.784822 2.500000 0.58307814 0.33664032 0.73938702 2.5 0 0 0
298 1 82.187500 123.949886 2.500000 0.59033226 0.63193078 0.50216662 2.5 0 0 0
299 1 83.437500 126.114949 2.500000 0.45612652 0.79003431 0.40962714 2.5 0 0 0
300 1 84.687500 128.280013 2.500000 0.25210197 0.82720813 0.50216662 2.5 0 0 0
301 1 13.437500 0.541266 2.500000 0.00000000 -0.00000000 1.00000000 2.5 0 0 0
302 1 14.687500 2.706329 2.500000 -0.18242270 -0.31596539 0.93106811 2.5 0 0 0
303 1 15.937500 4.871393 2.500000 -0.26773829 -0.46373631 0.84455008 2.5 0 0 0
304 1 17.187500 7.036456 2.500000 -0.26773829 -0.46373631 0.84455008 2.5 0 0 0
305 1 18.437500 9.201520 2.500000 -0.18242270 -0.31596539 0.93106811 2.5 0 0 0
306 1 19.687500 11.366583 2.500000 0.00000000 -0.00000000 1.00000000 2.5 0 0 0
307 1 20.937500 13.531647 2.500000 0.18242270 0.31596539 0.93106811 2.5 0 0 0
308 1 22.187500 15.696710 2.500000 0.26773829 0.46373631 0.84455008 2.5 0 0 0
309 1 23.437500 17.861774 2.500000 0.26773829 0.46373631 0.84455008 2.5 0 0 0
310 1 24.687500 20.026837 2.500000 0.18242270 0.31596539 0.93106811 2.5 0 0 0
311 1 25.937500 22.191901 2.500000 -0.00000000 -0.00000000 1.00000000 2.5 0 0 0
312 1 27.187500 24.356964 2.500000 -0.18242270 -0.31596539 0.93106811 2.5 0 0 0
313 1 28.437500 26.522028 2.500000 -0.26773829 -0.46373631 0.84455008 2.5 0 0 0
314 1 29.687500 28.687092 2.500000 -0.26773829 -0.46373631 0.84455008 2.5 0 0 0
315 1 30.937500 30.852155 2.500000 -0.18242270 -0.31596539 0.93106811 2.5 0 0 0
316 1 32.187500 33.017219 2.500000 -0.00000000 -0.00000000 1.00000000 2.5 0 0 0
317 1 33.437500 35.182282 2.500000 0.18242270 0.31596539 0.93106811 2.5 0 0 0
318 1 34.687500 37.347346 2.500000 0.26773829 0.46373631 0.84455008 2.5 0 0 0
319 1 35.937500 39.512409 2.500000 0.26773829 0.46373631 0.84455008 2.5 0 0 0
320 1 37.187500 41.677473 2.500000 0.18242270 0.31596539 0.93106811 2.5 0 0 0
321 1 38.437500 43.842536 2.500000 0.00000000 0.00000000 1.00000000 2.5 0 0 0
322 1 39.687500 46.007600 2.500000 -0.18242270 -0.31596539 0.93106811 2.5 0 0 0
323 1 40.937500 48.172663 2.500000 -0.26773829 -0.46373631 0.84455008 2.5 0 0 0
324 1 42.187500 50.337727 2.500000 -0.26773829 -0.46373631 0.84455008 2.5 0 0 0
325 1 43.437500 52.502790 2.500000 -0.18242270 -0.31596539 0.93106811 2.5 0 0 0
326 1 44.687500 54.667854 2.500000 -0.00000000 0.00000000 1.00000000 2.5 0 0 0
327 1 45.937500 56.832917 2.500000 0.18242270 0.31596539 0.93106811 2.5 0 0 0
328 1 47.187500 58.997981 2.500000 0.26773829 0.46373631 0.84455008 2.5 0 0 0
329 1 48.437500 61.163044 2.500000 0.26773829 0.46373631 0.84455008 2.5 0 0 0
330 1 49.687500 63.328108 2.500000 0.18242270 0.31596539 0.93106811 2.5 0 0 0
331 1 50.937500 65.493171 2.500000 0.00000000 -0.00000000 1.00000000 2.5 0 0 0
332 1 52.187500 67.658235 2.500000 -0.18242270 -0.31596539 0.93106811 2.5 0 0 0
333 1 53.437500 69.823298 2.500000 -0.26773829 -0.46373631 0.84455008 2.5 0 0 0
334 1 54.687500 71.988362 2.500000 -0.26773829 -0.46373631 0.84455008 2.5 0 0 0
335 1 55.937500 74.153425 2.500000 -0.18242270 -0.31596539 0.93106811 2.5 0 0 0
336 1 57.187500 76.318489 2.500000 -0.00000000 -0.00000000 1.00000000 2.5 0 0 0
337 1 58.437500 78.483552 2.500000 0.18242270 0.31596539 0.93106811 2.5 0 0 0
338 1 59.687500 80.648616 2.500000 0.26773829 0.46373631 0.84455008 2.5 0 0 0
339 1 60.937500 82.813679 2.500000 0.26773829 0.46373631 0.84455008 2.5 0 0 0
340 1 62.187500 84.978743 2.500000 0.18242270 0.31596539 0.93106811 2.5 0 0 0
341 1 63.437500 87.143806 2.500000 0.00000000 -0.00000000 1.00000000 2.5 0 0 0
342 1 64.687500 89.308870 2.500000 -0.18242270 -0.31596539 0.93106811 2.5 0 0 0
343 1 65.937500 91.473933 2.500000 -0.26773829 -0.46373631 0.84455008 2.5 0 0 0
344 1 67.187500 93.638997 2.500000 -0.26773829 -0.46373631 0.84455008 2.5 0 0 0
345 1 68.437500 95.804060 2.500000 -0.18242270 -0.31596539 0.93106811 2.5 0 0 0
346 1 69.687500 97.969124 2.500000 -0.00000000 -0.00000000 1.00000000 2.5 0 0 0
347 1 70.937500 100.134187 2.500000 0.18242270 0.31596539 0.93106811 2.5 0 0 0
348 1 72.187500 102.299251 2.500000 0.26773829 0.46373631 0.84455008 2.5 0 0 0
349 1 73.437500 104.464314 2.500000 0.26773829 0.46373631 0.84455008 2.5 0 0 0
350 1 74.687500 106.629378 2.500000 0.18242270 0.31596539 0.93106811 2.5 0 0 0
351 1 75.937500 108.794441 2.500000 -0.00000000 -0.00000000 1.00000000 2.5 0 0 0
352 1 77.187500 110.959505 2.500000 -0.18242270 -0.31596539 0.93106811 2.5 0 0 0
353 1 78.437500 113.124568 2.500000 -0.26773829 -0.46373631 0.84455008 2.5 0 0 0
354 1 79.687500 115.289632 2.500000 -0.26773829 -0.46373631 0.84455008 2.5 0 0 0
355 1 80.937500 117.454695 2.500000 -0.18242270 -0.31596539 0.93106811 2.5 0 0 0
356 1 82.187500 119.619759 2.500000 0.00000000 -0.00000000 1.00000000 2.5 0 0 0
357 1 83.437500 121.784822 2.500000 0.18242270 0.31596539 0.93106811 2.5 0 0 0
358 1 84.687500 123.949886 2.500000 0.26773829 0.46373631 0.84455008 2.5 0 0 0
359 1 85.937500 126.114949 2.500000 0.26773829 0.46373631 0.84455008 2.5 0 0 0
360 1 87.187500 128.280013 2.500000 0.18242270 0.31596539 0.93106811 2.5 0 0 0
361 1 15.937500 0.541266 2.500000 0.00000000 -0.67328065 0.73938702 2.5 0 0 0
362 1 17.187500 2.706329 2.500000 -0.25210197 -0.82720813 0.50216662 2.5 0 0 0
363 1 18.437500 4.871393 2.500000 -0.45612652 -0.79003431 0.40962714 2.5 0 0 0
364 1 19.687500 7.036456 2.500000 -0.59033226 -0.63193078 0.50216662 2.5 0 0 0
365 1 20.937500 9.201520 2.500000 -0.58307814 -0.33664032 0.73938702 2.5 0 0 0
366 1 22.187500 11.366583 2.500000 -0.36484540 -0.00000000 0.93106811 2.5 0 0 0
367 1 23.437500 13.531647 2.500000 -0.09844051 0.17050396 0.98042739 2.5 0 0 0
368 1 24.687500 15.696710 2.500000 0.09262434 0.16043006 0.98269167 2.5 0 0 0
369 1 25.937500 17.861774 2.500000 0.19688101 -0.00000000 0.98042739 2.5 0 0 0
370 1 27.187500 20.026837 2.500000 0.18242270 -0.31596539 0.93106811 2.5 0 0 0
371 1 28.437500 22.191901 2.500000 -0.00000000 -0.67328065 0.73938702 2.5 0 0 0
372 1 29.687500 24.356964 2.500000 -0.25210197 -0.82720813 0.50216662 2.5 0 0 0
373 1 30.937500 26.522028 2.500000 -0.45612652 -0.79003431 0.40962714 2.5 0 0 0
374 1 32.187500 28.687092 2.500000 -0.59033226 -0.63193078 0.50216662 2.5 0 0 0
375 1 33.437500 30.852155 2.500000 -0.58307814 -0.33664032 0.73938702 2.5 0 0 0
376 1 34.687500 33.017219 2.500000 -0.36484540 -0.00000000 0.93106811 2.5 0 0 0
377 1 35.937500 35.182282 2.500000 -0.09844051 0.17050396 0.98042739 2.5 0 0 0
378 1 37.187500 37.347346 2.500000 0.09262434 0.16043006 0.98269167 2.5 0 0 0
379 1 38.437500 39.512409 2.500000 0.19688101 0.00000000 0.98042739 2.5 0 0 0
380 1 39.687500 41.677473 2.500000 0.18242270 -0.31596539 0.93106811 2.5 0 0 0
381 1 40.937500 43.842536 2.500000 0.00000000 -0.67328065 0.73938702 2.5 0 0 0
382 1 42.187500 46.007600 2.500000 -0.25210197 -0.82720813 0.50216662 2.5 0 0 0
383 1 43.437500 48.172663 2.500000 -0.45612652 -0.79003431 0.40962714 2.5 0 0 0
384 1 44.687500 50.337727 2.500000 -0.59033226 -0.63193078 0.50216662 2.5 0 0 0
385 1 45.937500 52.502790 2.500000 -0.58307814 -0.33664032 0.73938702 2.5 0 0 0
386 1 47.187500 54.667854 2.500000 -0.36484540 0.00000000 0.93106811 2.5 0 0 0
387 1 48.437500 56.832917 2.500000 -0.09844051 0.17050396 0.98042739 2.5 0 0 0
388 1 49.687500 58.997981 2.500000 0.09262434 0.16043006 0.98269167 2.5 0 0 0
389 1 50.937500 61.163044 2.500000 0.19688101 -0.00000000 0.98042739 2.5 0 0 0
390 1 52.187500 63.328108 2.500000 0.18242270 -0.31596539 0.93106811 2.5 0 0 0
391 1 53.437500 65.493171 2.500000 -0.00000000 -0.67328065 0.73938702 2.5 0 0 0
392 1 54.687500 67.658235 2.500000 -0.25210197 -0.82720813 0.50216662 2.5 0 0 0
393 1 55.937500 69.823298 2.500000 -0.45612652 -0.79003431 0.40962714 2.5 0 0 0
394 1 57.187500 71.988362 2.500000 -0.59033226 -0.63193078 0.50216662 2.5 0 0 0
395 1 58.437500 74.153425 2.500000 -0.58307814 -0.33664032 0.73938702 2.5 0 0 0
396 1 59.687500 76.318489 2.500000 -0.36484540 0.00000000 0.93106811 2.5 0 0 0
397 1 60.937500 78.483552 2.500000 -0.09844051 0.17050396 0.98042739 2.5 0 0 0
398 1 62.187500 80.648616 2.500000 0.09262434 0.16043006 0.98269167 2.5 0 0 0
399 1 63.437500 82.813679 2.500000 0.19688101 -0.00000000 0.98042739 2.5 0 0 0
400 1 64.687500 84.978743 2.500000 0.18242270 -0.31596539 0.93106811 2.5 0 0 0
401 1 65.937500 87.143806 2.500000 0.00000000 -0.67328065 0.73938702 2.5 0 0 0
402 1 67.187500 89.308870 2.500000 -0.25210197 -0.82720813 0.50216662 2.5 0 0 0
403 1 68.437500 91.473933 2.500000 -0.45612652 -0.79003431 0.40962714 2.5 0 0 0
404 1 69.687500 93.638997 2.500000 -0.59033226 -0.63193078 0.50216662 2.5 0 0 0
405 1 70.937500 95.804060 2.500000 -0.58307814 -0.33664032 0.73938702 2.5 0 0 0
406 1 72.187500 97.969124 2.500000 -0.36484540 0.00000000 0.93106811 2.5 0 0 0
407 1 73.437500 100.134187 2.500000 -0.09844051 0.17050396 0.98042739 2.5 0 0 0
408 1 74.687500 102.299251 2.500000 0.09262434 0.16043006 0.98269167 2.5 0 0 0
409 1 75.937500 104.464314 2.500000 0.19688101 0.00000000 0.98042739 2.5 0 0 0
410 1 77.187500 106.629378 2.500000 0.18242270 -0.31596539 0.93106811 2.5 0 0 0
411 1 78.437500 108.794441 2.500000 -0.00000000 -0.67328065 0.73938702 2.5 0 0 0
412 1 79.687500 110.959505 2.500000 -0.25210197 -0.82720813 0.50216662 2.5 0 0 0
413 1 80.937500 113.124568 2.500000 -0.45612652 -0.79003431 0.40962714 2.5 0 0 0
414 1 82.187500 115.289632 2.500000 -0.59033226 -0.63193078 0.50216662 2.5 0 0 0
415 1 83.437500 117.454695 2.500000 -0.58307814 -0.33664032 0.73938702 2.5 0 0 0
416 1 84.687500 119.619759 2.500000 -0.36484540 0.00000000 0.93106811 2.5 0 0 0
417 1 85.937500 121.784822 2.500000 -0.09844051 0.17050396 0.98042739 2.5 0 0 0
418 1 87.187500 123.949886 2.500000 0.09262434 0.16043006 0.98269167 2.5 0 0 0
419 1 88.437500 126.114949 2.500000 0.19688101 -0.00000000 0.98042739 2.5 0 0 0
420 1 89.687500 128.280013 2.500000 0.18242270 -0.31596539 0.93106811 2.5 0 0 0
421 1 18.437500 0.541266 2.500000 0.00000000 -0.99744270 0.07147071 2.5 0 0 0
422 1 19.687500 2.706329 2.500000 -0.33094272 -0.92747263 -0.17398689 2.5 0 0 0
423 1 20.937500 4.871393 2.500000 -0.63774350 -0.75034112 -0.17398689 2.5 0 0 0
424 1 22.187500 7.036456 2.500000 -0.86381072 -0.49872135 0.07147071 2.5 0 0 0
425 1 23.437500 9.201520 2.500000 -0.84243424 -0.19527735 0.50216662 2.5 0 0 0
426 1 24.687500 11.366583 2.500000 -0.53547657 0.00000000 0.84455008 2.5 0 0 0
427 1 25.937500 13.531647 2.500000 -0.18524868 -0.00000000 0.98269167 2.5 0 0 0
428 1 27.187500 15.696710 2.500000 0.09262434 -0.16043006 0.98269167 2.5 0 0 0
429 1 28.437500 17.861774 2.500000 0.26773829 -0.46373631 0.84455008 2.5 0 0 0
430 1 29.687500 20.026837 2.500000 0.25210197 -0.82720813 0.50216662 2.5 0 0 0
431 1 30.937500 22.191901 2.500000 0.00000000 -0.99744270 0.07147071 2.5 0 0 0
432 1 32.187500 24.356964 2.500000 -0.33094272 -0.92747263 -0.17398689 2.5 0 0 0
433 1 33.437500 26.522028 2.500000 -0.63774350 -0.75034112 -0.17398689 2.5 0 0 0
434 1 34.687500 28.687092 2.500000 -0.86381072 -0.49872135 0.07147071 2.5 0 0 0
435 1 35.937500 30.852155 2.500000 -0.84243424 -0.19527735 0.50216662 2.5 0 0 0
436 1 37.187500 33.017219 2.500000 -0.53547657 -0.00000000 0.84455008 2.5 0 0 0
437 1 38.437500 35.182282 2.500000 -0.18524868 0.00000000 0.98269167 2.5 0 0 0
438 1 39.687500 37.347346 2.500000 0.09262434 -0.16043006 0.98269167 2.5 0 0 0
439 1 40.937500 39.512409 2.500000 0.26773829 -0.46373631 0.84455008 2.5 0 0 0
440 1 42.187500 41.677473 2.500000 0.25210197 -0.82720813 0.50216662 2.5 0 0 0
441 1 43.437500 43.842536 2.500000 0.00000000 -0.99744270 0.07147071 2.5 0 0 0
442 1 44.687500 46.007600 2.500000 -0.33094272 -0.92747263 -0.17398689 2.5 0 0 0
443 1 45.937500 48.172663 2.500000 -0.63774350 -0.75034112 -0.17398689 2.5 0 0 0
444 1 47.187500 50.337727 2.500000 -0.86381072 -0.49872135 0.07147071 2.5 0 0 0
445 1 48.437500 52.502790 2.500000 -0.84243424 -0.19527735 0.50216662 2.5 0 0 0
446 1 49.687500 54.667854 2.500000 -0.53547657 0.00000000 0.84455008 2.5 0 0 0
447 1 50.937500 56.832917 2.500000 -0.18524868 -0.00000000 0.98269167 2.5 0 0 0
448 1 52.187500 58.997981 2.500000 0.09262434 -0.16043006 0.98269167 2.5 0 0 0
449 1 53.437500 61.163044 2.500000 0.26773829 -0.46373631 0.84455008 2.5 0 0 0
450 1 54.687500 63.328108 2.500000 0.25210197 -0.82720813 0.50216662 2.5 0 0 0
451 1 55.937500 65.493171 2.500000 0.00000000 -0.99744270 0.07147071 2.5 0 0 0
452 1 57.187500 67.658235 2.500000 -0.33094272 -0.92747263 -0.17398689 2.5 0 0 0
453 1 58.437500 69.823298 2.500000 -0.63774350 -0.75034112 -0.17398689 2.5 0 0 0
454 1 59.687500 71.988362 2.500000 -0.86381072 -0.49872135 0.07147071 2.5 0 0 0
455 1 60.937500 74.153425 2.500000 -0.84243424 -0.19527735 0.50216662 2.5 0 0 0
456 1 62.187500 76.318489 2.500000 -0.53547657 -0.00000000 0.84455008 2.5 0 0 0
457 1 63.437500 78.483552 2.500000 -0.18524868 -0.00000000 0.98269167 2.5 0 0 0
458 1 64.687500 80.648616 2.500000 0.09262434 -0.16043006 0.98269167 2.5 0 0 0
459 1 65.937500 82.813679 2.500000 0.26773829 -0.46373631 0.84455008 2.5 0 0 0
460 1 67.187500 84.978743 2.500000 0.25210197 -0.82720813 0.50216662 2.5 0 0 0
461 1 68.437500 87.143806 2.500000 0.00000000 -0.99744270 0.07147071 2.5 0 0 0
462 1 69.687500 89.308870 2.500000 -0.33094272 -0.92747263 -0.17398689 2.5 0 0 0
463 1 70.937500 91.473933 2.500000 -0.63774350 -0.75034112 -0.17398689 2.5 0 0 0
464 1 72.187500 93.638997 2.500000 -0.86381072 -0.49872135 0.07147071 2.5 0 0 0
465 1 73.437500 95.804060 2.500000 -0.84243424 -0.19527735 0.50216662 2.5 0 0 0
466 1 74.687500 97.969124 2.500000 -0.53547657 -0.00000000 0.84455008 2.5 0 0 0
467 1 75.937500 100.134187 2.500000 -0.18524868 -0.00000000 0.98269167 2.5 0 0 0
468 1 77.187500 102.299251 2.500000 0.09262434 -0.16043006 0.98269167 2.5 0 0 0
469 1 78.437500 104.464314 2.500000 0.26773829 -0.46373631 0.84455008 2.5 0 0 0
470 1 79.687500 106.629378 2.500000 0.25210197 -0.82720813 0.50216662 2.5 0 0 0
471 1 80.937500 108.794441 2.500000 -0.00000000 -0.99744270 0.07147071 2.5 0 0 0
472 1 82.187500 110.959505 2.500000 -0.33094272 -0.92747263 -0.17398689 2.5 0 0 0
473 1 83.437500 113.124568 2.500000 -0.63774350 -0.75034112 -0.17398689 2.5 0 0 0
474 1 84.687500 115.289632 2.500000 -0.86381072 -0.49872135 0.07147071 2.5 0 0 0
475 1 85.937500 117.454695 2.500000 -0.84243424 -0.19527735 0.50216662 2.5 0 0 0
476 1 87.187500 119.619759 2.500000 -0.53547657 0.00000000 0.84455008 2.5 0 0 0
477 1 88.437500 121.784822 2.500000 -0.18524868 -0.00000000 0.98269167 2.5 0 0 0
478 1 89.687500 123.949886 2.500000 0.09262434 -0.16043006 0.98269167 2.5 0 0 0
479 1 90.937500 126.114949 2.500000 0.26773829 -0.46373631 0.84455008 2.5 0 0 0
480 1 92.187500 128.280013 2.500000 0.25210197 -0.82720813 0.50216662 2.5 0 0 0
481 1 20.937500 0.541266 2.500000 0.00000000 -0.82742021 -0.56158329 2.5 0 0 0
482 1 22.187500 2.706329 2.500000 -0.36661923 -0.63500314 -0.67997158 2.5 0 0 0
483 1 23.437500 4.871393 2.500000 -0.71656692 -0.41371011 -0.56158329 2.5 0 0 0
484 1 24.687500 7.036456 2.500000 -0.96868622 -0.17713151 -0.17398689 2.5 0 0 0
485 1 25.937500 9.201520 2.500000 -0.91225304 0.00000000 0.40962714 2.5 0 0 0
486 1 27.187500 11.366583 2.500000 -0.53547657 0.00000000 0.84455008 2.5 0 0 0
487 1 28.437500 13.531647 2.500000 -0.09844051 -0.17050396 0.98042739 2.5 0 0 0
488 1 29.687500 15.696710 2.500000 0.26773829 -0.46373631 0.84455008 2.5 0 0 0
489 1 30.937500 17.861774 2.500000 0.45612652 -0.79003431 0.40962714 2.5 0 0 0
490 1 32.187500 20.026837 2.500000 0.33094272 -0.92747263 -0.17398689 2.5 0 0 0
491 1 33.437500 22.191901 2.500000 0.00000000 -0.82742021 -0.56158329 2.5 0 0 0
492 1 34.687500 24.356964 2.500000 -0.36661923 -0.63500314 -0.67997158 2.5 0 0 0
493 1 35.937500 26.522028 2.500000 -0.71656692 -0.41371011 -0.56158329 2.5 0 0 0
494 1 37.187500 28.687092 2.500000 -0.96868622 -0.17713151 -0.17398689 2.5 0 0 0
495 1 38.437500 30.852155 2.500000 -0.91225304 -0.00000000 0.40962714 2.5 0 0 0
496 1 39.687500 33.017219 2.500000 -0.53547657 0.00000000 0.84455008 2.5 0 0 0
497 1 40.937500 35.182282 2.500000 -0.09844051 -0.17050396 0.98042739 2.5 0 0 0
498 1 42.187500 37.347346 2.500000 0.26773829 -0.46373631 0.84455008 2.5 0 0 0
499 1 43.437500 39.512409 2.500000 0.45612652 -0.79003431 0.40962714 2.5 0 0 0
500 1 44.687500 41.677473 2.500000 0.33094272 -0.92747263 -0.17398689 2.5 0 0 0
501 1 45.937500 43.842536 2.500000 0.00000000 -0.82742021 -0.56158329 2.5 0 0 0
502 1 47.187500 46.007600 2.500000 -0.36661923 -0.63500314 -0.67997158 2.5 0 0 0
503 1 48.437500 48.172663 2.500000 -0.71656692 -0.41371011 -0.56158329 2.5 0 0 0
504 1 49.687500 50.337727 2.500000 -0.96868622 -0.17713151 -0.17398689 2.5 0 0 0
505 1 50.937500 52.502790 2.500000 -0.91225304 0.00000000 0.40962714 2.5 0 0 0
506 1 52.187500 54.667854 2.500000 -0.53547657 -0.00000000 0.84455008 2.5 0 0 0
507 1 53.437500 56.832917 2.500000 -0.09844051 -0.17050396 0.98042739 2.5 0 0 0
508 1 54.687500 58.997981 2.500000 0.26773829 -0.46373631 0.84455008 2.5 0 0 0
509 1 55.937500 61.163044 2.500000 0.45612652 -0.79003431 0.40962714 2.5 0 0 0
510 1 57.187500 63.328108 2.500000 0.33094272 -0.92747263 -0.17398689 2.5 0 0 0
511 1 58.437500 65.493171 2.500000 0.00000000 -0.82742021 -0.56158329 2.5 0 0 0
512 1 59.687500 67.658235 2.500000 -0.36661923 -0.63500314 -0.67997158 2.5 0 0 0
513 1 60.937500 69.823298 2.500000 -0.71656692 -0.41371011 -0.56158329 2.5 0 0 0
514 1 62.187500 71.988362 2.500000 -0.96868622 -0.17713151 -0.17398689 2.5 0 0 0
515 1 63.437500 74.153425 2.500000 -0.91225304 0.00000000 0.40962714 2.5 0 0 0
516 1 64.687500 76.318489 2.500000 -0.53547657 -0.00000000 0.84455008 2.5 0 0 0
517 1 65.937500 78.483552 2.500000 -0.09844051 -0.17050396 0.98042739 2.5 0 0 0
518 1 67.187500 80.648616 2.500000 0.26773829 -0.46373631 0.84455008 2.5 0 0 0
519 1 68.437500 82.813679 2.500000 0.45612652 -0.79003431 0.40962714 2.5 0 0 0
520 1 69.687500 84.978743 2.500000 0.33094272 -0.92747263 -0.17398689 2.5 0 0 0
521 1 70.937500 87.143806 2.500000 0.00000000 -0.82742021 -0.56158329 2.5 0 0 0
522 1 72.187500 89.308870 2.500000 -0.36661923 -0.63500314 -0.67997158 2.5 0 0 0
523 1 73.437500 91.473933 2.500000 -0.71656692 -0.41371011 -0.56158329 2.5 0 0 0
524 1 74.687500 93.638997 2.500000 -0.96868622 -0.17713151 -0.17398689 2.5 0 0 0
525 1 75.937500 95.804060 2.500000 -0.91225304 -0.00000000 0.40962714 2.5 0 0 0
526 1 77.187500 97.969124 2.500000 -0.53547657 -0.00000000 0.84455008 2.5 0 0 0
527 1 78.437500 100.134187 2.500000 -0.09844051 -0.17050396 0.98042739 2.5 0 0 0
528 1 79.687500 102.299251 2.500000 0.26773829 -0.46373631 0.84455008 2.5 0 0 0
529 1 80.937500 104.464314 2.500000 0.45612652 -0.79003431 0.40962714 2.5 0 0 0
530 1 82.187500 106.629378 2.500000 0.33094272 -0.92747263 -0.17398689 2.5 0 0 0
531 1 83.437500 108.794441 2.500000 -0.00000000 -0.82742021 -0.56158329 2.5 0 0 0
532 1 84.687500 110.959505 2.500000 -0.36661923 -0.63500314 -0.67997158 2.5 0 0 0
533 1 85.937500 113.124568 2.500000 -0.71656692 -0.41371011 -0.56158329 2.5 0 0 0
534 1 87.187500 115.289632 2.500000 -0.96868622 -0.17713151 -0.17398689 2.5 0 0 0
535 1 88.437500 117.454695 2.500000 -0.91225304 0.00000000 0.40962714 2.5 0 0 0
536 1 89.687500 119.619759 2.500000 -0.53547657 -0.00000000 0.84455008 2.5 0 0 0
537 1 90.937500 121.784822 2.500000 -0.09844051 -0.17050396 0.98042739 2.5 0 0 0
538 1 92.187500 123.949886 2.500000 0.26773829 -0.46373631 0.84455008 2.5 0 0 0
539 1 93.437500 126.114949 2.500000 0.45612652 -0.79003431 0.40962714 2.5 0 0 0
540 1 94.687500 128.280013 2.500000 0.33094272 -0.92747263 -0.17398689 2.5 0 0 0
541 1 23.437500 0.541266 2.500000 0.00000000 -0.43322128 -0.90128759 2.5 0 0 0
542 1 24.687500 2.706329 2.500000 -0.37518063 -0.21661064 -0.90128759 2.5 0 0 0
543 1 25.937500 4.871393 2.500000 -0.73323847 0.00000000 -0.67997158 2.5 0 0 0
544 1 27.187500 7.036456 2.500000 -0.96868622 0.17713151 -0.17398689 2.5 0 0 0
545 1 28.437500 9.201520 2.500000 -0.84243424 0.19527735 0.50216662 2.5 0 0 0
546 1 29.687500 11.366583 2.500000 -0.36484540 0.00000000 0.93106811 2.5 0 0 0
547 1 30.937500 13.531647 2.500000 0.18242270 -0.31596539 0.93106811 2.5 0 0 0
548 1 32.187500 15.696710 2.500000 0.59033226 -0.63193078 0.50216662 2.5 0 0 0
549 1 33.437500 17.861774 2.500000 0.63774350 -0.75034112 -0.17398689 2.5 0 0 0
550 1 34.687500 20.026837 2.500000 0.36661923 -0.63500314 -0.67997158 2.5 0 0 0
551 1 35.937500 22.191901 2.500000 0.00000000 -0.43322128 -0.90128759 2.5 0 0 0
552 1 37.187500 24.356964 2.500000 -0.37518063 -0.21661064 -0.90128759 2.5 0 0 0
553 1 38.437500 26.522028 2.500000 -0.73323847 -0.00000000 -0.67997158 2.5 0 0 0
554 1 39.687500 28.687092 2.500000 -0.96868622 0.17713151 -0.17398689 2.5 0 0 0
555 1 40.937500 30.852155 2.500000 -0.84243424 0.19527735 0.50216662 2.5 0 0 0
556 1 42.187500 33.017219 2.500000 -0.36484540 0.00000000 0.93106811 2.5 0 0 0
557 1 43.437500 35.182282 2.500000 0.18242270 -0.31596539 0.93106811 2.5 0 0 0
558 1 44.687500 37.347346 2.500000 0.59033226 -0.63193078 0.50216662 2.5 0 0 0
559 1 45.937500 39.512409 2.500000 0.63774350 -0.75034112 -0.17398689 2.5 0 0 0
560 1 47.187500 41.677473 2.500000 0.36661923 -0.63500314 -0.67997158 2.5 0 0 0
561 1 48.437500 43.842536 2.500000 -0.00000000 -0.43322128 -0.90128759 2.5 0 0 0
562 1 49.687500 46.007600 2.500000 -0.37518063 -0.21661064 -0.90128759 2.5 0 0 0
563 1 50.937500 48.172663 2.500000 -0.73323847 0.00000000 -0.67997158 2.5 0 0 0
564 1 52.187500 50.337727 2.500000 -0.96868622 0.17713151 -0.17398689 2.5 0 0 0
565 1 53.437500 52.502790 2.500000 -0.84243424 0.19527735 0.50216662 2.5 0 0 0
566 1 54.687500 54.667854 2.500000 -0.36484540 -0.00000000 0.93106811 2.5 0 0 0
567 1 55.937500 56.832917 2.500000 0.18242270 -0.31596539 0.93106811 2.5 0 0 0
568 1 57.187500 58.997981 2.500000 0.59033226 -0.63193078 0.50216662 2.5 0 0 0
569 1 58.437500 61.163044 2.500000 0.63774350 -0.75034112 -0.17398689 2.5 0 0 0
570 1 59.687500 63.328108 2.500000 0.36661923 -0.63500314 -0.67997158 2.5 0 0 0
571 1 60.937500 65.493171 2.500000 0.00000000 -0.43322128 -0.90128759 2.5 0 0 0
572 1 62.187500 67.658235 2.500000 -0.37518063 -0.21661064 -0.90128759 2.5 0 0 0
573 1 63.437500 69.823298 2.500000 -0.73323847 0.00000000 -0.67997158 2.5 0 0 0
574 1 64.687500 71.988362 2.500000 -0.96868622 0.17713151 -0.17398689 2.5 0 0 0
575 1 65.937500 74.153425 2.500000 -0.84243424 0.19527735 0.50216662 2.5 0 0 0
576 1 67.187500 76.318489 2.500000 -0.36484540 0.00000000 0.93106811 2.5 0 0 0
577 1 68.437500 78.483552 2.500000 0.18242270 -0.31596539 0.93106811 2.5 0 0 0
578 1 69.687500 80.648616 2.500000 0.59033226 -0.63193078 0.50216662 2.5 0 0 0
579 1 70.937500 82.813679 2.500000 0.63774350 -0.75034112 -0.17398689 2.5 0 0 0
580 1 72.187500 84.978743 2.500000 0.36661923 -0.63500314 -0.67997158 2.5 0 0 0
581 1 73.437500 87.143806 2.500000 0.00000000 -0.43322128 -0.90128759 2.5 0 0 0
582 1 74.687500 89.308870 2.500000 -0.37518063 -0.21661064 -0.90128759 2.5 0 0 0
583 1 75.937500 91.473933 2.500000 -0.73323847 -0.00000000 -0.67997158 2.5 0 0 0
584 1 77.187500 93.638997 2.500000 -0.96868622 0.17713151 -0.17398689 2.5 0 0 0
585 1 78.437500 95.804060 2.500000 -0.84243424 0.19527735 0.50216662 2.5 0 0 0
586 1 79.687500 97.969124 2.500000 -0.36484540 0.00000000 0.93106811 2.5 0 0 0
587 1 80.937500 100.134187 2.500000 0.18242270 -0.31596539 0.93106811 2.5 0 0 0
588 1 82.187500 102.299251 2.500000 0.59033226 -0.63193078 0.50216662 2.5 0 0 0
589 1 83.437500 104.464314 2.500000 0.63774350 -0.75034112 -0.17398689 2.5 0 0 0
590 1 84.687500 106.629378 2.500000 0.36661923 -0.63500314 -0.67997158 2.5 0 0 0
591 1 85.937500 108.794441 2.500000 -0.00000000 -0.43322128 -0.90128759 2.5 0 0 0
592 1 87.187500 110.959505 2.500000 -0.37518063 -0.21661064 -0.90128759 2.5 0 0 0
593 1 88.437500 113.124568 2.500000 -0.73323847 0.00000000 -0.67997158 2.5 0 0 0
594 1 89.687500 115.289632 2.500000 -0.96868622 0.17713151 -0.17398689 2.5 0 0 0
595 1 90.937500 117.454695 2.500000 -0.84243424 0.19527735 0.50216662 2.5 0 0 0
596 1 92.187500 119.619759 2.500000 -0.36484540 0.00000000 0.93106811 2.5 0 0 0
597 1 93.437500 121.784822 2.500000 0.18242270 -0.31596539 0.93106811 2.5 0 0 0
598 1 94.687500 123.949886 2.500000 0.59033226 -0.63193078 0.50216662 2.5 0 0 0
599 1 95.937500 126.114949 2.500000 0.63774350 -0.75034112 -0.17398689 2.5 0 0 0
600 1 97.187500 128.280013 2.500000 0.36661923 -0.63500314 -0.67997158 2.5 0 0 0
601 1 25.937500 0.541266 2.500000 0.00000000 0.00000000 -1.00000000 2.5 0 0 0
602 1 27.187500 2.706329 2.500000 -0.37518063 0.21661064 -0.90128759 2.5 0 0 0
603 1 28.437500 4.871393 2.500000 -0.71656692 0.41371011 -0.56158329 2.5 0 0 0
604 1 29.687500 7.036456 2.500000 -0.86381072 0.49872135 0.07147071 2.5 0 0 0
605 1 30.937500 9.201520 2.500000 -0.58307814 0.33664032 0.73938702 2.5 0 0 0
606 1 32.187500 11.366583 2.500000 0.00000000 0.00000000 1.00000000 2.5 0 0 0
607 1 33.437500 13.531647 2.500000 0.58307814 -0.33664032 0.73938702 2.5 0 0 0
608 1 34.687500 15.696710 2.500000 0.86381072 -0.49872135 0.07147071 2.5 0 0 0
609 1 35.937500 17.861774 2.500000 0.71656692 -0.41371011 -0.56158329 2.5 0 0 0
610 1 37.187500 20.026837 2.500000 0.37518063 -0.21661064 -0.90128759 2.5 0 0 0
611 1 38.437500 22.191901 2.500000 0.00000000 -0.00000000 -1.00000000 2.5 0 0 0
612 1 39.687500 24.356964 2.500000 -0.37518063 0.21661064 -0.90128759 2.5 0 0 0
613 1 40.937500 26.522028 2.500000 -0.71656692 0.41371011 -0.56158329 2.5 0 0 0
614 1 42.187500 28.687092 2.500000 -0.86381072 0.49872135 0.07147071 2.5 0 0 0
615 1 43.437500 30.852155 2.500000 -0.58307814 0.33664032 0.73938702 2.5 0 0 0
616 1 44.687500 33.017219 2.500000 0.00000000 0.00000000 1.00000000 2.5 0 0 0
617 1 45.937500 35.182282 2.500000 0.58307814 -0.33664032 0.73938702 2.5 0 0 0
618 1 47.187500 37.347346 2.500000 0.86381072 -0.49872135 0.07147071 2.5 0 0 0
619 1 48.437500 39.512409 2.500000 0.71656692 -0.41371011 -0.56158329 2.5 0 0 0
620 1 49.687500 41.677473 2.500000 0.37518063 -0.21661064 -0.90128759 2.5 0 0 0
621 1 50.937500 43.842536 2.500000 0.00000000 0.00000000 -1.00000000 2.5 0 0 0
622 1 52.187500 46.007600 2.500000 -0.37518063 0.21661064 -0.90128759 2.5 0 0 0
623 1 53.437500 48.172663 2.500000 -0.71656692 0.41371011 -0.56158329 2.5 0 0 0
624 1 54.687500 50.337727 2.500000 -0.86381072 0.49872135 0.07147071 2.5 0 0 0
625 1 55.937500 52.502790 2.500000 -0.58307814 0.33664032 0.73938702 2.5 0 0 0
626 1 57.187500 54.667854 2.500000 0.00000000 -0.00000000 1.00000000 2.5 0 0 0
627 1 58.437500 56.832917 2.500000 0.58307814 -0.33664032 0.73938702 2.5 0 0 0
628 1 59.687500 58.997981 2.500000 0.86381072 -0.49872135 0.07147071 2.5 0 0 0
629 1 60.937500 61.163044 2.500000 0.71656692 -0.41371011 -0.56158329 2.5 0 0 0
630 1 62.187500 63.328108 2.500000 0.37518063 -0.21661064 -0.90128759 2.5 0 0 0
631 1 63.437500 65.493171 2.500000 0.00000000 0.00000000 -1.00000000 2.5 0 0 0
632 1 64.687500 67.658235 2.500000 -0.37518063 0.21661064 -0.90128759 2.5 0 0 0
633 1 65.937500 69.823298 2.500000 -0.71656692 0.41371011 -0.56158329 2.5 0 0 0
634 1 67.187500 71.988362 2.500000 -0.86381072 0.49872135 0.07147071 2.5 0 0 0
635 1 68.437500 74.153425 2.500000 -0.58307814 0.33664032 0.73938702 2.5 0 0 0
636 1 69.687500 76.318489 2.500000 0.00000000 -0.00000000 1.00000000 2.5 0 0 0
637 1 70.937500 78.483552 2.500000 0.58307814 -0.33664032 0.73938702 2.5 0 0 0
638 1 72.187500 80.648616 2.500000 0.86381072 -0.49872135 0.07147071 2.5 0 0 0
639 1 73.437500 82.813679 2.500000 0.71656692 -0.41371011 -0.56158329 2.5 0 0 0
640 1 74.687500 84.978743 2.500000 0.37518063 -0.21661064 -0.90128759 2.5 0 0 0
641 1 75.937500 87.143806 2.500000 0.00000000 -0.00000000 -1.00000000 2.5 0 0 0
642 1 77.187500 89.308870 2.500000 -0.37518063 0.21661064 -0.90128759 2.5 0 0 0
643 1 78.437500 91.473933 2.500000 -0.71656692 0.41371011 -0.56158329 2.5 0 0 0
644 1 79.687500 93.638997 2.500000 -0.86381072 0.49872135 0.07147071 2.5 0 0 0
645 1 80.937500 95.804060 2.500000 -0.58307814 0.33664032 0.73938702 2.5 0 0 0
646 1 82.187500 97.969124 2.500000 0.00000000 -0.00000000 1.00000000 2.5 0 0 0
647 1 83.437500 100.134187 2.500000 0.58307814 -0.33664032 0.73938702 2.5 0 0 0
648 1 84.687500 102.299251 2.500000 0.86381072 -0.49872135 0.07147071 2.5 0 0 0
649 1 85.937500 104.464314 2.500000 0.71656692 -0.41371011 -0.56158329 2.5 0 0 0
650 1 87.187500 106.629378 2.500000 0.37518063 -0.21661064 -0.90128759 2.5 0 0 0
651 1 88.437500 108.794441 2.500000 -0.00000000 0.00000000 -1.00000000 2.5 0 0 0
652 1 89.687500 110.959505 2.500000 -0.37518063 0.21661064 -0.90128759 2.5 0 0 0
653 1 90.937500 113.124568 2.500000 -0.71656692 0.41371011 -0.56158329 2.5 0 0 0
654 1 92.187500 115.289632 2.500000 -0.86381072 0.49872135 0.07147071 2.5 0 0 0
655 1 93.437500 117.454695 2.500000 -0.58307814 0.33664032 0.73938702 2.5 0 0 0
656 1 94.687500 119.619759 2.500000 0.00000000 -0.00000000 1.00000000 2.5 0 0 0
657 1 95.937500 121.784822 2.500000 0.58307814 -0.33664032 0.73938702 2.5 0 0 0
658 1 97.187500 123.949886 2.500000 0.86381072 -0.49872135 0.07147071 2.5 0 0 0
659 1 98.437500 126.114949 2.500000 0.71656692 -0.41371011 -0.56158329 2.5 0 0 0
660 1 99.687500 128.280013 2.500000 0.37518063 -0.21661064 -0.90128759 2.5 0 0 0
661 1 28.437500 0.541266 2.500000 0.00000000 0.43322128 -0.90128759 2.5 0 0 0
662 1 29.687500 2.706329 2.500000 -0.36661923 0.63500314 -0.67997158 2.5 0 0 0
663 1 30.937500 4.871393 2.500000 -0.63774350 0.75034112 -0.17398689 2.5 0 0 0
664 1 32.187500 7.036456 2.500000 -0.59033226 0.63193078 0.50216662 2.5 0 0 0
665 1 33.437500 9.201520 2.500000 -0.18242270 0.31596539 0.93106811 2.5 0 0 0
666 1 34.687500 11.366583 2.500000 0.36484540 0.00000000 0.93106811 2.5 0 0 0
667 1 35.937500 13.531647 2.500000 0.84243424 -0.19527735 0.50216662 2.5 0 0 0
668 1 37.187500 15.696710 2.500000 0.96868622 -0.17713151 -0.17398689 2.5 0 0 0
669 1 38.437500 17.861774 2.500000 0.73323847 -0.00000000 -0.67997158 2.5 0 0 0
670 1 39.687500 20.026837 2.500000 0.37518063 0.21661064 -0.90128759 2.5 0 0 0
671 1 40.937500 22.191901 2.500000 0.00000000 0.43322128 -0.90128759 2.5 0 0 0
672 1 42.187500 24.356964 2.500000 -0.36661923 0.63500314 -0.67997158 2.5 0 0 0
673 1 43.437500 26.522028 2.500000 -0.63774350 0.75034112 -0.17398689 2.5 0 0 0
674 1 44.687500 28.687092 2.500000 -0.59033226 0.63193078 0.50216662 2.5 0 0 0
675 1 45.937500 30.852155 2.500000 -0.18242270 0.31596539 0.93106811 2.5 0 0 0
676 1 47.187500 33.017219 2.500000 0.36484540 0.00000000 0.93106811 2.5 0 0 0
677 1 48.437500 35.182282 2.500000 0.84243424 -0.19527735 0.50216662 2.5 0 0 0
678 1 49.687500 37.347346 2.500000 0.96868622 -0.17713151 -0.17398689 2.5 0 0 0
679 1 50.937500 39.512409 2.500000 0.73323847 0.00000000 -0.67997158 2.5 0 0 0
680 1 52.187500 41.677473 2.500000 0.37518063 0.21661064 -0.90128759 2.5 0 0 0
681 1 53.437500 43.842536 2.500000 0.00000000 0.43322128 -0.90128759 2.5 0 0 0
682 1 54.687500 46.007600 2.500000 -0.36661923 0.63500314 -0.67997158 2.5 0 0 0
683 1 55.937500 48.172663 2.500000 -0.63774350 0.75034112 -0.17398689 2.5 0 0 0
684 1 57.187500 50.337727 2.500000 -0.59033226 0.63193078 0.50216662 2.5 0 0 0
685 1 58.437500 52.502790 2.500000 -0.18242270 0.31596539 0.93106811 2.5 0 0 0
686 1 59.687500 54.667854 2.500000 0.36484540 -0.00000000 0.93106811 2.5 0 0 0
687 1 60.937500 56.832917 2.500000 0.84243424 -0.19527735 0.50216662 2.5 0 0 0
688 1 62.187500 58.997981 2.500000 0.96868622 -0.17713151 -0.17398689 2.5 0 0 0
689 1 63.437500 61.163044 2.500000 0.73323847 0.00000000 -0.67997158 2.5 0 0 0
690 1 64.687500 63.328108 2.500000 0.37518063 0.21661064 -0.90128759 2.5 0 0 0
691 1 65.937500 65.493171 2.500000 0.00000000 0.43322128 -0.90128759 2.5 0 0 0
692 1 67.187500 67.658235 2.500000 -0.36661923 0.63500314 -0.67997158 2.5 0 0 0
693 1 68.437500 69.823298 2.500000 -0.63774350 0.75034112 -0.17398689 2.5 0 0 0
694 1 69.687500 71.988362 2.500000 -0.59033226 0.63193078 0.50216662 2.5 0 0 0
695 1 70.937500 74.153425 2.500000 -0.18242270 0.31596539 0.93106811 2.5 0 0 0
696 1 72.187500 76.318489 2.500000 0.36484540 0.00000000 0.93106811 2.5 0 0 0
697 1 73.437500 78.483552 2.500000 0.84243424 -0.19527735 0.50216662 2.5 0 0 0
698 1 74.687500 80.648616 2.500000 0.96868622 -0.17713151 -0.17398689 2.5 0 0 0
699 1 75.937500 82.813679 2.500000 0.73323847 0.00000000 -0.67997158 2.5 0 0 0
700 1 77.187500 84.978743 2.500000 0.37518063 0.21661064 -0.90128759 2.5 0 0 0
701 1 78.437500 87.143806 2.500000 0.00000000 0.43322128 -0.90128759 2.5 0 0 0
702 1 79.687500 89.308870 2.500000 -0.36661923 0.63500314 -0.67997158 2.5 0 0 0
703 1 80.937500 91.473933 2.500000 -0.63774350 0.75034112 -0.17398689 2.5 0 0 0
704 1 82.187500 93.638997 2.500000 -0.59033226 0.63193078 0.50216662 2.5 0 0 0
705 1 83.437500 95.804060 2.500000 -0.18242270 0.31596539 0.93106811 2.5 0 0 0
706 1 84.687500 97.969124 2.500000 0.36484540 0.00000000 0.93106811 2.5 0 0 0
707 1 85.937500 100.134187 2.500000 0.84243424 -0.19527735 0.50216662 2.5 0 0 0
708 1 87.187500 102.299251 2.500000 0.96868622 -0.17713151 -0.17398689 2.5 0 0 0
709 1 88.437500 104.464314 2.500000 0.73323847 0.00000000 -0.67997158 2.5 0 0 0
710 1 89.687500 106.629378 2.500000 0.37518063 0.21661064 -0.90128759 2.5 0 0 0
711 1 90.937500 108.794441 2.500000 -0.00000000 0.43322128 -0.90128759 2.5 0 0 0
712 1 92.187500 110.959505 2.500000 -0.36661923 0.63500314 -0.67997158 2.5 0 0 0
713 1 93.437500 113.124568 2.500000 -0.63774350 0.75034112 -0.17398689 2.5 0 0 0
714 1 94.687500 115.289632 2.500000 -0.59033226 0.63193078 0.50216662 2.5 0 0 0
715 1 95.937500 117.454695 2.500000 -0.18242270 0.31596539 0.93106811 2.5 0 0 0
716 1 97.187500 119.619759 2.500000 0.36484540 -0.00000000 0.93106811 2.5 0 0 0
717 1 98.437500 121.784822 2.500000 0.84243424 -0.19527735 0.50216662 2.5 0 0 0
718 1 99.687500 123.949886 2.500000 0.96868622 -0.17713151 -0.17398689 2.5 0 0 0
719 1 100.937500 126.114949 2.500000 0.73323847 0.00000000 -0.67997158 2.5 0 0 0
720 1 102.187500 128.280013 2.500000 0.37518063 0.21661064 -0.90128759 2.5 0 0 0
721 1 30.937500 0.541266 2.500000 0.00000000 0.82742021 -0.56158329 2.5 0 0 0
722 1 32.187500 2.706329 2.500000 -0.33094272 0.92747263 -0.17398689 2.5 0 0 0
723 1 33.437500 4.871393 2.500000 -0.45612652 0.79003431 0.40962714 2.5 0 0 0
724 1 34.687500 7.036456 2.500000 -0.26773829 0.46373631 0.84455008 2.5 0 0 0
725 1 35.937500 9.201520 2.500000 0.09844051 0.17050396 0.98042739 2.5 0 0 0
726 1 37.187500 11.366583 2.500000 0.53547657 0.00000000 0.84455008 2.5 0 0 0
727 1 38.437500 13.531647 2.500000 0.91225304 -0.00000000 0.40962714 2.5 0 0 0
728 1 39.687500 15.696710 2.500000 0.96868622 0.17713151 -0.17398689 2.5 0 0 0
729 1 40.937500 17.861774 2.500000 0.71656692 0.41371011 -0.56158329 2.5 0 0 0
730 1 42.187500 20.026837 2.500000 0.36661923 0.63500314 -0.67997158 2.5 0 0 0
731 1 43.437500 22.191901 2.500000 0.00000000 0.82742021 -0.56158329 2.5 0 0 0
732 1 44.687500 24.356964 2.500000 -0.33094272 0.92747263 -0.17398689 2.5 0 0 0
733 1 45.937500 26.522028 2.500000 -0.45612652 0.79003431 0.40962714 2.5 0 0 0
734 1 47.187500 28.687092 2.500000 -0.26773829 0.46373631 0.84455008 2.5 0 0 0
735 1 48.437500 30.852155 2.500000 0.09844051 0.17050396 0.98042739 2.5 0 0 0
736 1 49.687500 33.017219 2.500000 0.53547657 -0.00000000 0.84455008 2.5 0 0 0
737 1 50.937500 35.182282 2.500000 0.91225304 0.00000000 0.40962714 2.5 0 0 0
738 1 52.187500 37.347346 2.500000 0.96868622 0.17713151 -0.17398689 2.5 0 0 0
739 1 53.437500 39.512409 2.500000 0.71656692 0.41371011 -0.56158329 2.5 0 0 0
740 1 54.687500 41.677473 2.500000 0.36661923 0.63500314 -0.67997158 2.5 0 0 0
741 1 55.937500 43.842536 2.500000 0.00000000 0.82742021 -0.56158329 2.5 0 0 0
742 1 57.187500 46.007600 2.500000 -0.33094272 0.92747263 -0.17398689 2.5 0 0 0
743 1 58.437500 48.172663 2.500000 -0.45612652 0.79003431 0.40962714 2.5 0 0 0
744 1 59.687500 50.337727 2.500000 -0.26773829 0.46373631 0.84455008 2.5 0 0 0
745 1 60.937500 52.502790 2.500000 0.09844051 0.17050396 0.98042739 2.5 0 0 0
746 1 62.187500 54.667854 2.500000 0.53547657 -0.00000000 0.84455008 2.5 0 0 0
747 1 63.437500 56.832917 2.500000 0.91225304 0.00000000 0.40962714 2.5 0 0 0
748 1 64.687500 58.997981 2.500000 0.96868622 0.17713151 -0.17398689 2.5 0 0 0
749 1 65.937500 61.163044 2.500000 0.71656692 0.41371011 -0.56158329 2.5 0 0 0
750 1 67.187500 63.328108 2.500000 0.36661923 0.63500314 -0.67997158 2.5 0 0 0
751 1 68.437500 65.493171 2.500000 0.00000000 0.82742021 -0.56158329 2.5 0 0 0
752 1 69.687500 67.658235 2.500000 -0.33094272 0.92747263 -0.17398689 2.5 0 0 0
753 1 70.937500 69.823298 2.500000 -0.45612652 0.79003431 0.40962714 2.5 0 0 0
754 1 72.187500 71.988362 2.500000 -0.26773829 0.46373631 0.84455008 2.5 0 0 0
755 1 73.437500 74.153425 2.500000 0.09844051 0.17050396 0.98042739 2.5 0 0 0
756 1 74.687500 76.318489 2.500000 0.53547657 -0.00000000 0.84455008 2.5 0 0 0
757 1 75.937500 78.483552 2.500000 0.91225304 -0.00000000 0.40962714 2.5 0 0 0
758 1 77.187500 80.648616 2.500000 0.96868622 0.17713151 -0.17398689 2.5 0 0 0
759 1 78.437500 82.813679 2.500000 0.71656692 0.41371011 -0.56158329 2.5 0 0 0
760 1 79.687500 84.978743 2.500000 0.36661923 0.63500314 -0.67997158 2.5 0 0 0
761 1 80.937500 87.143806 2.500000 0.00000000 0.82742021 -0.56158329 2.5 0 0 0
762 1 82.187500 89.308870 2.500000 -0.33094272 0.92747263 -0.17398689 2.5 0 0 0
763 1 83.437500 91.473933 2.500000 -0.45612652 0.79003431 0.40962714 2.5 0 0 0
764 1 84.687500 93.638997 2.500000 -0.26773829 0.46373631 0.84455008 2.5 0 0 0
765 1 85.937500 95.804060 2.500000 0.09844051 0.17050396 0.98042739 2.5 0 0 0
766 1 87.187500 97.969124 2.500000 0.53547657 -0.00000000 0.84455008 2.5 0 0 0
767 1 88.437500 100.134187 2.500000 0.91225304 0.00000000 0.40962714 2.5 0 0 0
768 1 89.687500 102.299251 2.500000 0.96868622 0.17713151 -0.17398689 2.5 0 0 0
769 1 90.937500 104.464314 2.500000 0.71656692 0.41371011 -0.56158329 2.5 0 0 0
770 1 92.187500 106.629378 2.500000 0.36661923 0.63500314 -0.67997158 2.5 0 0 0
771 1 93.437500 108.794441 2.500000 -0.00000000 0.82742021 -0.56158329 2.5 0 0 0
772 1 94.687500 110.959505 2.500000 -0.33094272 0.92747263 -0.17398689 2.5 0 0 0
773 1 95.937500 113.124568 2.500000 -0.45612652 0.79003431 0.40962714 2.5 0 0 0
774 1 97.187500 115.289632 2.500000 -0.26773829 0.46373631 0.84455008 2.5 0 0 0
775 1 98.437500 117.454695 2.500000 0.09844051 0.17050396 0.98042739 2.5 0 0 0
776 1 99.687500 119.619759 2.500000 0.53547657 -0.00000000 0.84455008 2.5 0 0 0
777 1 100.937500 121.784822 2.500000 0.91225304 0.00000000 0.40962714 2.5 0 0 0
778 1 102.187500 123.949886 2.500000 0.96868622 0.17713151 -0.17398689 2.5 0 0 0
779 1 103.437500 126.114949 2.500000 0.71656692 0.41371011 -0.56158329 2.5 0 0 0
780 1 104.687500 128.280013 2.500000 0.36661923 0.63500314 -0.67997158 2.5 0 0 0
781 1 33.437500 0.541266 2.500000 0.00000000 0.99744270 0.07147071 2.5 0 0 0
782 1 34.687500 2.706329 2.500000 -0.25210197 0.82720813 0.50216662 2.5 0 0 0
783 1 35.937500 4.871393 2.500000 -0.26773829 0.46373631 0.84455008 2.5 0 0 0
784 1 37.187500 7.036456 2.500000 -0.09262434 0.16043006 0.98269167 2.5 0 0 0
785 1 38.437500 9.201520 2.500000 0.18524868 0.00000000 0.98269167 2.5 0 0 0
786 1 39.687500 11.366583 2.500000 0.53547657 -0.00000000 0.84455008 2.5 0 0 0
787 1 40.937500 13.531647 2.500000 0.84243424 0.19527735 0.50216662 2.5 0 0 0
788 1 42.187500 15.696710 2.500000 0.86381072 0.49872135 0.07147071 2.5 0 0 0
789 1 43.437500 17.861774 2.500000 0.63774350 0.75034112 -0.17398689 2.5 0 0 0
790 1 44.687500 20.026837 2.500000 0.33094272 0.92747263 -0.17398689 2.5 0 0 0
791 1 45.937500 22.191901 2.500000 0.00000000 0.99744270 0.07147071 2.5 0 0 0
792 1 47.187500 24.356964 2.500000 -0.25210197 0.82720813 0.50216662 2.5 0 0 0
793 1 48.437500 26.522028 2.500000 -0.26773829 0.46373631 0.84455008 2.5 0 0 0
794 1 49.687500 28.687092 2.500000 -0.09262434 0.16043006 0.98269167 2.5 0 0 0
795 1 50.937500 30.852155 2.500000 0.18524868 -0.00000000 0.98269167 2.5 0 0 0
796 1 52.187500 33.017219 2.500000 0.53547657 -0.00000000 0.84455008 2.5 0 0 0
797 1 53.437500 35.182282 2.500000 0.84243424 0.19527735 0.50216662 2.5 0 0 0
798 1 54.687500 37.347346 2.500000 0.86381072 0.49872135 0.07147071 2.5 0 0 0
799 1 55.937500 39.512409 2.500000 0.63774350 0.75034112 -0.17398689 2.5 0 0 0
800 1 57.187500 41.677473 2.500000 0.33094272 0.92747263 -0.17398689 2.5 0 0 0
801 1 58.437500 43.842536 2.500000 0.00000000 0.99744270 0.07147071 2.5 0 0 0
802 1 59.687500 46.007600 2.500000 -0.25210197 0.82720813 0.50216662 2.5 0 0 0
803 1 60.937500 48.172663 2.500000 -0.26773829 0.46373631 0.84455008 2.5 0 0 0
804 1 62.187500 50.337727 2.500000 -0.09262434 0.16043006 0.98269167 2.5 0 0 0
805 1 63.437500 52.502790 2.500000 0.18524868 -0.00000000 0.98269167 2.5 0 0 0
806 1 64.687500 54.667854 2.500000 0.53547657 0.00000000 0.84455008 2.5 0 0 0
807 1 65.937500 56.832917 2.500000 0.84243424 0.19527735 0.50216662 2.5 0 0 0
808 1 67.187500 58.997981 2.500000 0.86381072 0.49872135 0.07147071 2.5 0 0 0
809 1 68.437500 61.163044 2.500000 0.63774350 0.75034112 -0.17398689 2.5 0 0 0
810 1 69.687500 63.328108 2.500000 0.33094272 0.92747263 -0.17398689 2.5 0 0 0
811 1 70.937500 65.493171 2.500000 0.00000000 0.99744270 0.07147071 2.5 0 0 0
812 1 72.187500 67.658235 2.500000 -0.25210197 0.82720813 0.50216662 2.5 0 0 0
813 1 73.437500 69.823298 2.500000 -0.26773829 0.46373631 0.84455008 2.5 0 0 0
814 1 74.687500 71.988362 2.500000 -0.09262434 0.16043006 0.98269167 2.5 0 0 0
815 1 75.937500 74.153425 2.500000 0.18524868 -0.00000000 0.98269167 2.5 0 0 0
816 1 77.187500 76.318489 2.500000 0.53547657 -0.00000000 0.84455008 2.5 0 0 0
817 1 78.437500 78.483552 2.500000 0.84243424 0.19527735 0.50216662 2.5 0 0 0
818 1 79.687500 80.648616 2.500000 0.86381072 0.49872135 0.07147071 2.5 0 0 0
819 1 80.937500 82.813679 2.500000 0.63774350 0.75034112 -0.17398689 2.5 0 0 0
820 1 82.187500 84.978743 2.500000 0.33094272 0.92747263 -0.17398689 2.5 0 0 0
821 1 83.437500 87.143806 2.500000 0.00000000 0.99744270 0.07147071 2.5 0 0 0
822 1 84.687500 89.308870 2.500000 -0.25210197 0.82720813 0.50216662 2.5 0 0 0
823 1 85.937500 91.473933 2.500000 -0.26773829 0.46373631 0.84455008 2.5 0 0 0
824 1 87.187500 93.638997 2.500000 -0.09262434 0.16043006 0.98269167 2.5 0 0 0
825 1 88.437500 95.804060 2.500000 0.18524868 -0.00000000 0.98269167 2.5 0 0 0
826 1 89.687500 97.969124 2.500000 0.53547657 -0.00000000 0.84455008 2.5 0 0 0
827 1 90.937500 100.134187 2.500000 0.84243424 0.19527735 0.50216662 2.5 0 0 0
828 1 92.187500 102.299251 2.500000 0.86381072 0.49872135 0.07147071 2.5 0 0 0
829 1 93.437500 104.464314 2.500000 0.63774350 0.75034112 -0.17398689 2.5 0 0 0
830 1 94.687500 106.629378 2.500000 0.33094272 0.92747263 -0.17398689 2.5 0 0 0
831 1 95.937500 108.794441 2.500000 -0.00000000 0.99744270 0.07147071 2.5 0 0 0
832 1 97.187500 110.959505 2.500000 -0.25210197 0.82720813 0.50216662 2.5 0 0 0
833 1 98.437500 113.124568 2.500000 -0.26773829 0.46373631 0.84455008 2.5 0 0 0
834 1 99.687500 115.289632 2.500000 -0.09262434 0.16043006 0.98269167 2.5 0 0 0
835 1 100.937500 117.454695 2.500000 0.18524868 -0.00000000 0.98269167 2.5 0 0 0
836 1 102.187500 119.619759 2.500000 0.53547657 -0.00000000 0.84455008 2.5 0 0 0
837 1 103.437500 121.784822 2.500000 0.84243424 0.19527735 0.50216662 2.5 0 0 0
838 1 104.687500 123.949886 2.500000 0.86381072 0.49872135 0.07147071 2.5 0 0 0
839 1 105.937500 126.114949 2.500000 0.63774350 0.75034112 -0.17398689 2.5 0 0 0
840 1 107.187500 128.280013 2.500000 0.33094272 0.92747263 -0.17398689 2.5 0 0 0
841 1 35.937500 0.541266 2.500000 0.00000000 0.67328065 0.73938702 2.5 0 0 0
842 1 37.187500 2.706329 2.500000 -0.18242270 0.31596539 0.93106811 2.5 0 0 0
843 1 38.437500 4.871393 2.500000 -0.19688101 0.00000000 0.98042739 2.5 0 0 0
844 1 39.687500 7.036456 2.500000 -0.09262434 -0.16043006 0.98269167 2.5 0 0 0
845 1 40.937500 9.201520 2.500000 0.09844051 -0.17050396 0.98042739 2.5 0 0 0
846 1 42.187500 11.366583 2.500000 0.36484540 -0.00000000 0.93106811 2.5 0 0 0
847 1 43.437500 13.531647 2.500000 0.58307814 0.33664032 0.73938702 2.5 0 0 0
848 1 44.687500 15.696710 2.500000 0.59033226 0.63193078 0.50216662 2.5 0 0 0
849 1 45.937500 17.861774 2.500000 0.45612652 0.79003431 0.40962714 2.5 0 0 0
850 1 47.187500 20.026837 2.500000 0.25210197 0.82720813 0.50216662 2.5 0 0 0
851 1 48.437500 22.191901 2.500000 0.00000000 0.67328065 0.73938702 2.5 0 0 0
852 1 49.687500 24.356964 2.500000 -0.18242270 0.31596539 0.93106811 2.5 0 0 0
853 1 50.937500 26.522028 2.500000 -0.19688101 -0.00000000 0.98042739 2.5 0 0 0
854 1 52.187500 28.687092 2.500000 -0.09262434 -0.16043006 0.98269167 2.5 0 0 0
855 1 53.437500 30.852155 2.500000 0.09844051 -0.17050396 0.98042739 2.5 0 0 0
856 1 54.687500 33.017219 2.500000 0.36484540 0.00000000 0.93106811 2.5 0 0 0
857 1 55.937500 35.182282 2.500000 0.58307814 0.33664032 0.73938702 2.5 0 0 0
858 1 57.187500 37.347346 2.500000 0.59033226 0.63193078 0.50216662 2.5 0 0 0
859 1 58.437500 39.512409 2.500000 0.45612652 0.79003431 0.40962714 2.5 0 0 0
860 1 59.687500 41.677473 2.500000 0.25210197 0.82720813 0.50216662 2.5 0 0 0
861 1 60.937500 43.842536 2.500000 -0.00000000 0.67328065 0.73938702 2.5 0 0 0
862 1 62.187500 46.007600 2.500000 -0.18242270 0.31596539 0.93106811 2.5 0 0 0
863 1 63.437500 48.172663 2.500000 -0.19688101 -0.00000000 0.98042739 2.5 0 0 0
864 1 64.687500 50.337727 2.500000 -0.09262434 -0.16043006 0.98269167 2.5 0 0 0
865 1 65.937500 52.502790 2.500000 0.09844051 -0.17050396 0.98042739 2.5 0 0 0
866 1 67.187500 54.667854 2.500000 0.36484540 0.00000000 0.93106811 2.5 0 0 0
867 1 68.437500 56.832917 2.500000 0.58307814 0.33664032 0.73938702 2.5 0 0 0
868 1 69.687500 58.997981 2.500000 0.59033226 0.63193078 0.50216662 2.5 0 0 0
869 1 70.937500 61.163044 2.500000 0.45612652 0.79003431 0.40962714 2.5 0 0 0
870 1 72.187500 63.328108 2.500000 0.25210197 0.82720813 0.50216662 2.5 0 0 0
871 1 73.437500 65.493171 2.500000 0.00000000 0.67328065 0.73938702 2.5 0 0 0
872 1 74.687500 67.658235 2.500000 -0.18242270 0.31596539 0.93106811 2.5 0 0 0
873 1 75.937500 69.823298 2.500000 -0.19688101 0.00000000 0.98042739 2.5 0 0 0
874 1 77.187500 71.988362 2.500000 -0.09262434 -0.16043006 0.98269167 2.5 0 0 0
875 1 78.437500 74.153425 2.500000 0.09844051 -0.17050396 0.98042739 2.5 0 0 0
876 1 79.687500 76.318489 2.500000 0.36484540 0.00000000 0.93106811 2.5 0 0 0
877 1 80.937500 78.483552 2.500000 0.58307814 0.33664032 0.73938702 2.5 0 0 0
878 1 82.187500 80.648616 2.500000 0.59033226 0.63193078 0.50216662 2.5 0 0 0
879 1 83.437500 82.813679 2.500000 0.45612652 0.79003431 0.40962714 2.5 0 0 0
880 1 84.687500 84.978743 2.500000 0.25210197 0.82720813 0.50216662 2.5 0 0 0
881 1 85.937500 87.143806 2.500000 0.00000000 0.67328065 0.73938702 2.5 0 0 0
882 1 87.187500 89.308870 2.500000 -0.18242270 0.31596539 0.93106811 2.5 0 0 0
883 1 88.437500 91.473933 2.500000 -0.19688101 -0.00000000 0.98042739 2.5 0 0 0
884 1 89.687500 93.638997 2.500000 -0.09262434 -0.16043006 0.98269167 2.5 0 0 0
885 1 90.937500 95.804060 2.500000 0.09844051 -0.17050396 0.98042739 2.5 0 0 0
886 1 92.187500 97.969124 2.500000 0.36484540 0.00000000 0.93106811 2.5 0 0 0
887 1 93.437500 100.134187 2.500000 0.58307814 0.33664032 0.73938702 2.5 0 0 0
888 1 94.687500 102.299251 2.500000 0.59033226 0.63193078 0.50216662 2.5 0 0 0
889 1 95.937500 104.464314 2.500000 0.45612652 0.79003431 0.40962714 2.5 0 0 0
890 1 97.187500 106.629378 2.500000 0.25210197 0.82720813 0.50216662 2.5 0 0 0
891 1 98.437500 108.794441 2.500000 -0.00000000 0.67328065 0.73938702 2.5 0 0 0
892 1 99.687500 110.959505 2.500000 -0.18242270 0.31596539 0.93106811 2.5 0 0 0
893 1 100.937500 113.124568 2.500000 -0.19688101 -0.00000000 0.98042739 2.5 0 0 0
894 1 102.187500 115.289632 2.500000 -0.09262434 -0.16043006 0.98269167 2.5 0 0 0
895 1 103.437500 117.454695 2.500000 0.09844051 -0.17050396 0.98042739 2.5 0 0 0
896 1 104.687500 119.619759 2.500000 0.36484540 0.00000000 0.93106811 2.5 0 0 0
897 1 105.937500 121.784822 2.500000 0.58307814 0.33664032 0.73938702 2.5 0 0 0
898 1 107.187500 123.949886 2.500000 0.59033226 0.63193078 0.50216662 2.5 0 0 0
899 1 108.437500 126.114949 2.500000 0.45612652 0.79003431 0.40962714 2.5 0 0 0
900 1 109.687500 128.280013 2.500000 0.25210197 0.82720813 0.50216662 2.5 0 0 0
901 1 38.437500 0.541266 2.500000 0.00000000 0.00000000 1.00000000 2.5 0 0 0
902 1 39.687500 2.706329 2.500000 -0.18242270 -0.31596539 0.93106811 2.5 0 0 0
903 1 40.937500 4.871393 2.500000 -0.26773829 -0.46373631 0.84455008 2.5 0 0 0
904 1 42.187500 7.036456 2.500000 -0.26773829 -0.46373631 0.84455008 2.5 0 0 0
905 1 43.437500 9.201520 2.500000 -0.18242270 -0.31596539 0.93106811 2.5 0 0 0
906 1 44.687500 11.366583 2.500000 -0.00000000 -0.00000000 1.00000000 2.5 0 0 0
907 1 45.937500 13.531647 2.500000 0.18242270 0.31596539 0.93106811 2.5 0 0 0
908 1 47.187500 15.696710 2.500000 0.26773829 0.46373631 0.84455008 2.5 0 0 0
909 1 48.437500 17.861774 2.500000 0.26773829 0.46373631 0.84455008 2.5 0 0 0
910 1 49.687500 20.026837 2.500000 0.18242270 0.31596539 0.93106811 2.5 0 0 0
911 1 50.937500 22.191901 2.500000 0.00000000 -0.00000000 1.00000000 2.5 0 0 0
912 1 52.187500 24.356964 2.500000 -0.18242270 -0.31596539 0.93106811 2.5 0 0 0
913 1 53.437500 26.522028 2.500000 -0.26773829 -0.46373631 0.84455008 2.5 0 0 0
914 1 54.687500 28.687092 2.500000 -0.26773829 -0.46373631 0.84455008 2.5 0 0 0
915 1 55.937500 30.852155 2.500000 -0.18242270 -0.31596539 0.93106811 2.5 0 0 0
916 1 57.187500 33.017219 2.500000 -0.00000000 -0.00000000 1.00000000 2.5 0 0 0
917 1 58.437500 35.182282 2.500000 0.18242270 0.31596539 0.93106811 2.5 0 0 0
918 1 59.687500 37.347346 2.500000 0.26773829 0.46373631 0.84455008 2.5 0 0 0
919 1 60.937500 39.512409 2.500000 0.26773829 0.46373631 0.84455008 2.5 0 0 0
920 1 62.187500 41.677473 2.500000 0.18242270 0.31596539 0.93106811 2.5 0 0 0
921 1 63.437500 43.842536 2.500000 0.00000000 -0.00000000 1.00000000 2.5 0 0 0
922 1 64.687500 46.007600 2.500000 -0.18242270 -0.31596539 0.93106811 2.5 0 0 0
923 1 65.937500 48.172663 2.500000 -0.26773829 -0.46373631 0.84455008 2.5 0 0 0
924 1 67.187500 50.337727 2.500000 -0.26773829 -0.46373631 0.84455008 2.5 0 0 0
925 1 68.437500 52.502790 2.500000 -0.18242270 -0.31596539 0.93106811 2.5 0 0 0
926 1 69.687500 54.667854 2.500000 0.00000000 0.00000000 1.00000000 2.5 0 0 0
927 1 70.937500 56.832917 2.500000 0.18242270 0.31596539 0.93106811 2.5 0 0 0
928 1 72.187500 58.997981 2.500000 0.26773829 0.46373631 0.84455008 2.5 0 0 0
929 1 73.437500 61.163044 2.500000 0.26773829 0.46373631 0.84455008 2.5 0 0 0
930 1 74.687500 63.328108 2.500000 0.18242270 0.31596539 0.93106811 2.5 0 0 0
931 1 75.937500 65.493171 2.500000 0.00000000 0.00000000 1.00000000 2.5 0 0 0
932 1 77.187500 67.658235 2.500000 -0.18242270 -0.31596539 0.93106811 2.5 0 0 0
933 1 78.437500 69.823298 2.500000 -0.26773829 -0.46373631 0.84455008 2.5 0 0 0
934 1 79.687500 71.988362 2.500000 -0.26773829 -0.46373631 0.84455008 2.5 0 0 0
935 1 80.937500 74.153425 2.500000 -0.18242270 -0.31596539 0.93106811 2.5 0 0 0
936 1 82.187500 76.318489 2.500000 -0.00000000 -0.00000000 1.00000000 2.5 0 0 0
937 1 83.437500 78.483552 2.500000 0.18242270 0.31596539 0.93106811 2.5 0 0 0
938 1 84.687500 80.648616 2.500000 0.26773829 0.46373631 0.84455008 2.5 0 0 0
939 1 85.937500 82.813679 2.500000 0.26773829 0.46373631 0.84455008 2.5 0 0 0
940 1 87.187500 84.978743 2.500000 0.18242270 0.31596539 0.93106811 2.5 0 0 0
941 1 88.437500 87.143806 2.500000 0.00000000 -0.00000000 1.00000000 2.5 0 0 0
942 1 89.687500 89.308870 2.500000 -0.18242270 -0.31596539 0.93106811 2.5 0 0 0
943 1 90.937500 91.473933 2.500000 -0.26773829 -0.46373631 0.84455008 2.5 0 0 0
944 1 92.187500 93.638997 2.500000 -0.26773829 -0.46373631 0.84455008 2.5 0 0 0
945 1 93.437500 95.804060 2.500000 -0.18242270 -0.31596539 0.93106811 2.5 0 0 0
946 1 94.687500 97.969124 2.500000 -0.00000000 -0.00000000 1.00000000 2.5 0 0 0
947 1 95.937500 100.134187 2.500000 0.18242270 0.31596539 0.93106811 2.5 0 0 0
948 1 97.187500 102.299251 2.500000 0.26773829 0.46373631 0.84455008 2.5 0 0 0
949 1 98.437500 104.464314 2.500000 0.26773829 0.46373631 0.84455008 2.5 0 0 0
950 1 99.687500 106.629378 2.500000 0.18242270 0.31596539 0.93106811 2.5 0 0 0
951 1 100.937500 108.794441 2.500000 -0.00000000 -0.00000000 1.00000000 2.5 0 0 0
952 1 102.187500 110.959505 2.500000 -0.18242270 -0.31596539 0.93106811 2.5 0 0 0
953 1 103.437500 113.124568 2.500000 -0.26773829 -0.46373631 0.84455008 2.5 0 0 0
954 1 104.687500 115.289632 2.500000 -0.26773829 -0.46373631 0.84455008 2.5 0 0 0
955 1 105.937500 117.454695 2.500000 -0.18242270 -0.31596539 0.93106811 2.5 0 0 0
956 1 107.187500 119.619759 2.500000 -0.00000000 0.00000000 1.00000000 2.5 0 0 0
957 1 108.437500 121.784822 2.500000 0.18242270 0.31596539 0.93106811 2.5 0 0 0
958 1 109.687500 123.949886 2.500000 0.26773829 0.46373631 0.84455008 2.5 0 0 0
959 1 110.937500 126.114949 2.500000 0.26773829 0.46373631 0.84455008 2.5 0 0 0
960 1 112.187500 128.280013 2.500000 0.18242270 0.31596539 0.93106811 2.5 0 0 0
961 1 40.937500 0.541266 2.500000 0.00000000 -0.67328065 0.73938702 2.5 0 0 0
962 1 42.187500 2.706329 2.500000 -0.25210197 -0.82720813 0.50216662 2.5 0 0 0
963 1 43.437500 4.871393 2.500000 -0.45612652 -0.79003431 0.40962714 2.5 0 0 0
964 1 44.687500 7.036456 2.500000 -0.59033226 -0.63193078 0.50216662 2.5 0 0 0
965 1 45.937500 9.201520 2.500000 -0.58307814 -0.33664032 0.73938702 2.5 0 0 0
966 1 47.187500 11.366583 2.500000 -0.36484540 -0.00000000 0.93106811 2.5 0 0 0
967 1 48.437500 13.531647 2.500000 -0.09844051 0.17050396 0.98042739 2.5 0 0 0
968 1 49.687500 15.696710 2.500000 0.09262434 0.16043006 0.98269167 2.5 0 0 0
969 1 50.937500 17.861774 2.500000 0.19688101 -0.00000000 0.98042739 2.5 0 0 0
970 1 52.187500 20.026837 2.500000 0.18242270 -0.31596539 0.93106811 2.5 0 0 0
971 1 53.437500 22.191901 2.500000 -0.00000000 -0.67328065 0.73938702 2.5 0 0 0
972 1 54.687500 24.356964 2.500000 -0.25210197 -0.82720813 0.50216662 2.5 0 0 0
973 1 55.937500 26.522028 2.500000 -0.45612652 -0.79003431 0.40962714 2.5 0 0 0
974 1 57.187500 28.687092 2.500000 -0.59033226 -0.63193078 0.50216662 2.5 0 0 0
975 1 58.437500 30.852155 2.500000 -0.58307814 -0.33664032 0.73938702 2.5 0 0 0
976 1 59.687500 33.017219 2.500000 -0.36484540 0.00000000 0.93106811 2.5 0 0 0
977 1 60.937500 35.182282 2.500000 -0.09844051 0.17050396 0.98042739 2.5 0 0 0
978 1 62.187500 37.347346 2.500000 0.09262434 0.16043006 0.98269167 2.5 0 0 0
979 1 63.437500 39.512409 2.500000 0.19688101 -0.00000000 0.98042739 2.5 0 0 0
980 1 64.687500 41.677473 2.500000 0.18242270 -0.31596539 0.93106811 2.5 0 0 0
981 1 65.937500 43.842536 2.500000 0.00000000 -0.67328065 0.73938702 2.5 0 0 0
982 1 67.187500 46.007600 2.500000 -0.25210197 -0.82720813 0.50216662 2.5 0 0 0
983 1 68.437500 48.172663 2.500000 -0.45612652 -0.79003431 0.40962714 2.5 0 0 0
984 1 69.687500 50.337727 2.500000 -0.59033226 -0.63193078 0.50216662 2.5 0 0 0
985 1 70.937500 52.502790 2.500000 -0.58307814 -0.33664032 0.73938702 2.5 0 0 0
986 1 72.187500 54.667854 2.500000 -0.36484540 0.00000000 0.93106811 2.5 0 0 0
987 1 73.437500 56.832917 2.500000 -0.09844051 0.17050396 0.98042739 2.5 0 0 0
988 1 74.687500 58.997981 2.500000 0.09262434 0.16043006 0.98269167 2.5 0 0 0
989 1 75.937500 61.163044 2.500000 0.19688101 0.00000000 0.98042739 2.5 0 0 0
990 1 77.187500 63.328108 2.500000 0.18242270 -0.31596539 0.93106811 2.5 0 0 0
991 1 78.437500 65.493171 2.500000 0.00000000 -0.67328065 0.73938702 2.5 0 0 0
992 1 79.687500 67.658235 2.500000 -0.25210197 -0.82720813 0.50216662 2.5 0 0 0
993 1 80.937500 69.823298 2.500000 -0.45612652 -0.79003431 0.40962714 2.5 0 0 0
994 1 82.187500 71.988362 2.500000 -0.59033226 -0.63193078 0.50216662 2.5 0 0 0
995 1 83.437500 74.153425 2.500000 -0.58307814 -0.33664032 0.73938702 2.5 0 0 0
996 1 84.687500 76.318489 2.500000 -0.36484540 0.00000000 0.93106811 2.5 0 0 0
997 1 85.937500 78.483552 2.500000 -0.09844051 0.17050396 0.98042739 2.5 0 0 0
998 1 87.187500 80.648616 2.500000 0.09262434 0.16043006 0.98269167 2.5 0 0 0
999 1 88.437500 82.813679 2.500000 0.19688101 -0.00000000 0.98042739 2.5 0 0 0
1000 1 89.687500 84.978743 2.500000 0.18242270 -0.31596539 0.93106811 2.5 0 0 0
1001 1 90.937500 87.143806 2.500000 -0.00000000 -0.67328065 0.73938702 2.5 0 0 0
1002 1 92.187500 89.308870 2.500000 -0.25210197 -0.82720813 0.50216662 2.5 0 0 0
1003 1 93.437500 91.473933 2.500000 -0.45612652 -0.79003431 0.40962714 2.5 0 0 0
1004 1 94.687500 93.638997 2.500000 -0.59033226 -0.63193078 0.50216662 2.5 0 0 0
1005 1 95.937500 95.804060 2.500000 -0.58307814 -0.33664032 0.73938702 2.5 0 0 0
1006 1 97.187500 97.969124 2.500000 -0.36484540 0.00000000 0.93106811 2.5 0 0 0
1007 1 98.437500 100.134187 2.500000 -0.09844051 0.17050396 0.98042739 2.5 0 0 0
1008 1 99.687500 102.299251 2.500000 0.09262434 0.16043006 0.98269167 2.5 0 0 0
1009 1 100.937500 104.464314 2.500000 0.19688101 -0.00000000 0.98042739 2.5 0 0 0
1010 1 102.187500 106.629378 2.500000 0.18242270 -0.31596539 0.93106811 2.5 0 0 0
1011 1 103.437500 108.794441 2.500000 -0.00000000 -0.67328065 0.73938702 2.5 0 0 0
1012 1 104.687500 110.959505 2.500000 -0.25210197 -0.82720813 0.50216662 2.5 0 0 0
1013 1 105.937500 113.124568 2.500000 -0.45612652 -0.79003431 0.40962714 2.5 0 0 0
1014 1 107.187500 115.289632 2.500000 -0.59033226 -0.63193078 0.50216662 2.5 0 0 0
1015 1 108.437500 117.454695 2.500000 -0.58307814 -0.33664032 0.73938702 2.5 0 0 0
1016 1 109.687500 119.619759 2.500000 -0.36484540 0.00000000 0.93106811 2.5 0 0 0
1017 1 110.937500 121.784822 2.500000 -0.09844051 0.17050396 0.98042739 2.5 0 0 0
1018 1 112.187500 123.949886 2.500000 0.09262434 0.16043006 0.98269167 2.5 0 0 0
1019 1 113.437500 126.114949 2.500000 0.19688101 -0.00000000 0.98042739 2.5 0 0 0
1020 1 114.687500 128.280013 2.500000 0.18242270 -0.31596539 0.93106811 2.5 0 0 0
1021 1 43.437500 0.541266 2.500000 0.00000000 -0.99744270 0.07147071 2.5 0 0 0
1022 1 44.687500 2.706329 2.500000 -0.33094272 -0.92747263 -0.17398689 2.5 0 0 0
1023 1 45.937500 4.871393 2.500000 -0.63774350 -0.75034112 -0.17398689 2.5 0 0 0
1024 1 47.187500 7.036456 2.500000 -0.86381072 -0.49872135 0.07147071 2.5 0 0 0
1025 1 48.437500 9.201520 2.500000 -0.84243424 -0.19527735 0.50216662 2.5 0 0 0
1026 1 49.687500 11.366583 2.500000 -0.53547657 0.00000000 0.84455008 2.5 0 0 0
1027 1 50.937500 13.531647 2.500000 -0.18524868 -0.00000000 0.98269167 2.5 0 0 0
1028 1 52.187500 15.696710 2.500000 0.09262434 -0.16043006 0.98269167 2.5 0 0 0
1029 1 53.437500 17.861774 2.500000 0.26773829 -0.46373631 0.84455008 2.5 0 0 0
1030 1 54.687500 20.026837 2.500000 0.25210197 -0.82720813 0.50216662 2.5 0 0 0
1031 1 55.937500 22.191901 2.500000 0.00000000 -0.99744270 0.07147071 2.5 0 0 0
1032 1 57.187500 24.356964 2.500000 -0.33094272 -0.92747263 -0.17398689 2.5 0 0 0
1033 1 58.437500 26.522028 2.500000 -0.63774350 -0.75034112 -0.17398689 2.5 0 0 0
1034 1 59.687500 28.687092 2.500000 -0.86381072 -0.49872135 0.07147071 2.5 0 0 0
1035 1 60.937500 30.852155 2.500000 -0.84243424 -0.19527735 0.50216662 2.5 0 0 0
1036 1 62.187500 33.017219 2.500000 -0.53547657 -0.00000000 0.84455008 2.5 0 0 0
1037 1 63.437500 35.182282 2.500000 -0.18524868 -0.00000000 0.98269167 2.5 0 0 0
1038 1 64.687500 37.347346 2.500000 0.09262434 -0.16043006 0.98269167 2.5 0 0 0
1039 1 65.937500 39.512409 2.500000 0.26773829 -0.46373631 0.84455008 2.5 0 0 0
1040 1 67.187500 41.677473 2.500000 0.25210197 -0.82720813 0.50216662 2.5 0 0 0
1041 1 68.437500 43.842536 2.500000 0.00000000 -0.99744270 0.07147071 2.5 0 0 0
1042 1 69.687500 46.007600 2.500000 -0.33094272 -0.92747263 -0.17398689 2.5 0 0 0
1043 1 70.937500 48.172663 2.500000 -0.63774350 -0.75034112 -0.17398689 2.5 0 0 0
1044 1 72.187500 50.337727 2.500000 -0.86381072 -0.49872135 0.07147071 2.5 0 0 0
1045 1 73.437500 52.502790 2.500000 -0.84243424 -0.19527735 0.50216662 2.5 0 0 0
1046 1 74.687500 54.667854 2.500000 -0.53547657 0.00000000 0.84455008 2.5 0 0 0
1047 1 75.937500 56.832917 2.500000 -0.18524868 0.00000000 0.98269167 2.5 0 0 0
1048 1 77.187500 58.997981 2.500000 0.09262434 -0.16043006 0.98269167 2.5 0 0 0
1049 1 78.437500 61.163044 2.500000 0.26773829 -0.46373631 0.84455008 2.5 0 0 0
1050 1 79.687500 63.328108 2.500000 0.25210197 -0.82720813 0.50216662 2.5 0 0 0
1051 1 80.937500 65.493171 2.500000 0.00000000 -0.99744270 0.07147071 2.5 0 0 0
1052 1 82.187500 67.658235 2.500000 -0.33094272 -0.92747263 -0.17398689 2.5 0 0 0
1053 1 83.437500 69.823298 2.500000 -0.63774350 -0.75034112 -0.17398689 2.5 0 0 0
1054 1 84.687500 71.988362 2.500000 -0.86381072 -0.49872135 0.07147071 2.5 0 0 0
1055 1 85.937500 74.153425 2.500000 -0.84243424 -0.19527735 0.50216662 2.5 0 0 0
1056 1 87.187500 76.318489 2.500000 -0.53547657 -0.00000000 0.84455008 2.5 0 0 0
1057 1 88.437500 78.483552 2.500000 -0.18524868 -0.00000000 0.98269167 2.5 0 0 0
1058 1 89.687500 80.648616 2.500000 0.09262434 -0.16043006 0.98269167 2.5 0 0 0
1059 1 90.937500 82.813679 2.500000 0.26773829 -0.46373631 0.84455008 2.5 0 0 0
1060 1 92.187500 84.978743 2.500000 0.25210197 -0.82720813 0.50216662 2.5 0 0 0
1061 1 93.437500 87.143806 2.500000 0.00000000 -0.99744270 0.07147071 2.5 0 0 0
1062 1 94.687500 89.308870 2.500000 -0.33094272 -0.92747263 -0.17398689 2.5 0 0 0
1063 1 95.937500 91.473933 2.500000 -0.63774350 -0.75034112 -0.17398689 2.5 0 0 0
1064 1 97.187500 93.638997 2.500000 -0.86381072 -0.49872135 0.07147071 2.5 0 0 0
1065 1 98.437500 95.804060 2.500000 -0.84243424 -0.19527735 0.50216662 2.5 0 0 0
1066 1 99.687500 97.969124 2.500000 -0.53547657 -0.00000000 0.84455008 2.5 0 0 0
1067 1 100.937500 100.134187 2.500000 -0.18524868 -0.00000000 0.98269167 2.5 0 0 0
1068 1 102.187500 102.299251 2.500000 0.09262434 -0.16043006 0.98269167 2.5 0 0 0
1069 1 103.437500 104.464314 2.500000 0.26773829 -0.46373631 0.84455008 2.5 0 0 0
1070 1 104.687500 106.629378 2.500000 0.25210197 -0.82720813 0.50216662 2.5 0 0 0
1071 1 105.937500 108.794441 2.500000 -0.00000000 -0.99744270 0.07147071 2.5 0 0 0
1072 1 107.187500 110.959505 2.500000 -0.33094272 -0.92747263 -0.17398689 2.5 0 0 0
1073 1 108.437500 113.124568 2.500000 -0.63774350 -0.75034112 -0.17398689 2.5 0 0 0
1074 1 109.687500 115.289632 2.500000 -0.86381072 -0.49872135 0.07147071 2.5 0 0 0
1075 1 110.937500 117.454695 2.500000 -0.84243424 -0.19527735 0.50216662 2.5 0 0 0
1076 1 112.187500 119.619759 2.500000 -0.53547657 -0.00000000 0.84455008 2.5 0 0 0
1077 1 113.437500 121.784822 2.500000 -0.18524868 -0.00000000 0.98269167 2.5 0 0 0
1078 1 114.687500 123.949886 2.500000 0.09262434 -0.16043006 0.98269167 2.5 0 0 0
1079 1 115.937500 126.114949 2.500000 0.26773829 -0.46373631 0.84455008 2.5 0 0 0
1080 1 117.187500 128.280013 2.500000 0.25210197 -0.82720813 0.50216662 2.5 0 0 0
1081 1 45.937500 0.541266 2.500000 0.00000000 -0.82742021 -0.56158329 2.5 0 0 0
1082 1 47.187500 2.706329 2.500000 -0.36661923 -0.63500314 -0.67997158 2.5 0 0 0
1083 1 48.437500 4.871393 2.500000 -0.71656692 -0.41371011 -0.56158329 2.5 0 0 0
1084 1 49.687500 7.036456 2.500000 -0.96868622 -0.17713151 -0.17398689 2.5 0 0 0
1085 1 50.937500 9.201520 2.500000 -0.91225304 0.00000000 0.40962714 2.5 0 0 0
1086 1 52.187500 11.366583 2.500000 -0.53547657 0.00000000 0.84455008 2.5 0 0 0
1087 1 53.437500 13.531647 2.500000 -0.09844051 -0.17050396 0.98042739 2.5 0 0 0
1088 1 54.687500 15.696710 2.500000 0.26773829 -0.46373631 0.84455008 2.5 0 0 0
1089 1 55.937500 17.861774 2.500000 0.45612652 -0.79003431 0.40962714 2.5 0 0 0
1090 1 57.187500 20.026837 2.500000 0.33094272 -0.92747263 -0.17398689 2.5 0 0 0
1091 1 58.437500 22.191901 2.500000 0.00000000 -0.82742021 -0.56158329 2.5 0 0 0
1092 1 59.687500 24.356964 2.500000 -0.36661923 -0.63500314 -0.67997158 2.5 0 0 0
1093 1 60.937500 26.522028 2.500000 -0.71656692 -0.41371011 -0.56158329 2.5 0 0 0
1094 1 62.187500 28.687092 2.500000 -0.96868622 -0.17713151 -0.17398689 2.5 0 0 0
1095 1 63.437500 30.852155 2.500000 -0.91225304 0.00000000 0.40962714 2.5 0 0 0
1096 1 64.687500 33.017219 2.500000 -0.53547657 -0.00000000 0.84455008 2.5 0 0 0
1097 1 65.937500 35.182282 2.500000 -0.09844051 -0.17050396 0.98042739 2.5 0 0 0
1098 1 67.187500 37.347346 2.500000 0.26773829 -0.46373631 0.84455008 2.5 0 0 0
1099 1 68.437500 39.512409 2.500000 0.45612652 -0.79003431 0.40962714 2.5 0 0 0
1100 1 69.687500 41.677473 2.500000 0.33094272 -0.92747263 -0.17398689 2.5 0 0 0
1101 1 70.937500 43.842536 2.500000 0.00000000 -0.82742021 -0.56158329 2.5 0 0 0
1102 1 72.187500 46.007600 2.500000 -0.36661923 -0.63500314 -0.67997158 2.5 0 0 0
1103 1 73.437500 48.172663 2.500000 -0.71656692 -0.41371011 -0.56158329 2.5 0 0 0
1104 1 74.687500 50.337727 2.500000 -0.96868622 -0.17713151 -0.17398689 2.5 0 0 0
1105 1 75.937500 52.502790 2.500000 -0.91225304 -0.00000000 0.40962714 2.5 0 0 0
1106 1 77.187500 54.667854 2.500000 -0.53547657 -0.00000000 0.84455008 2.5 0 0 0
1107 1 78.437500 56.832917 2.500000 -0.09844051 -0.17050396 0.98042739 2.5 0 0 0
1108 1 79.687500 58.997981 2.500000 0.26773829 -0.46373631 0.84455008 2.5 0 0 0
1109 1 80.937500 61.163044 2.500000 0.45612652 -0.79003431 0.40962714 2.5 0 0 0
1110 1 82.187500 63.328108 2.500000 0.33094272 -0.92747263 -0.17398689 2.5 0 0 0
1111 1 83.437500 65.493171 2.500000 0.00000000 -0.82742021 -0.56158329 2.5 0 0 0
1112 1 84.687500 67.658235 2.500000 -0.36661923 -0.63500314 -0.67997158 2.5 0 0 0
1113 1 85.937500 69.823298 2.500000 -0.71656692 -0.41371011 -0.56158329 2.5 0 0 0
1114 1 87.187500 71.988362 2.500000 -0.96868622 -0.17713151 -0.17398689 2.5 0 0 0
1115 1 88.437500 74.153425 2.500000 -0.91225304 0.00000000 0.40962714 2.5 0 0 0
1116 1 89.687500 76.318489 2.500000 -0.53547657 -0.00000000 0.84455008 2.5 0 0 0
1117 1 90.937500 78.483552 2.500000 -0.09844051 -0.17050396 0.98042739 2.5 0 0 0
1118 1 92.187500 80.648616 2.500000 0.26773829 -0.46373631 0.84455008 2.5 0 0 0
1119 1 93.437500 82.813679 2.500000 0.45612652 -0.79003431 0.40962714 2.5 0 0 0
1120 1 94.687500 84.978743 2.500000 0.33094272 -0.92747263 -0.17398689 2.5 0 0 0
1121 1 95.937500 87.143806 2.500000 0.00000000 -0.82742021 -0.56158329 2.5 0 0 0
1122 1 97.187500 89.308870 2.500000 -0.36661923 -0.63500314 -0.67997158 2.5 0 0 0
1123 1 98.437500 91.473933 2.500000 -0.71656692 -0.41371011 -0.56158329 2.5 0 0 0
1124 1 99.687500 93.638997 2.500000 -0.96868622 -0.17713151 -0.17398689 2.5 0 0 0
1125 1 100.937500 95.804060 2.500000 -0.91225304 0.00000000 0.40962714 2.5 0 0 0
1126 1 102.187500 97.969124 2.500000 -0.53547657 -0.00000000 0.84455008 2.5 0 0 0
1127 1 103.437500 100.134187 2.500000 -0.09844051 -0.17050396 0.98042739 2.5 0 0 0
1128 1 104.687500 102.299251 2.500000 0.26773829 -0.46373631 0.84455008 2.5 0 0 0
1129 1 105.937500 104.464314 2.500000 0.45612652 -0.79003431 0.40962714 2.5 0 0 0
1130 1 107.187500 106.629378 2.500000 0.33094272 -0.92747263 -0.17398689 2.5 0 0 0
1131 1 108.437500 108.794441 2.500000 -0.00000000 -0.82742021 -0.56158329 2.5 0 0 0
1132 1 109.687500 110.959505 2.500000 -0.36661923 -0.63500314 -0.67997158 2.5 0 0 0
1133 1 110.937500 113.124568 2.500000 -0.71656692 -0.41371011 -0.56158329 2.5 0 0 0
1134 1 112.187500 115.289632 2.500000 -0.96868622 -0.17713151 -0.17398689 2.5 0 0 0
1135 1 113.437500 117.454695 2.500000 -0.91225304 0.00000000 0.40962714 2.5 0 0 0
1136 1 114.687500 119.619759 2.500000 -0.53547657 -0.00000000 0.84455008 2.5 0 0 0
1137 1 115.937500 121.784822 2.500000 -0.09844051 -0.17050396 0.98042739 2.5 0 0 0
1138 1 117.187500 123.949886 2.500000 0.26773829 -0.46373631 0.84455008 2.5 0 0 0
1139 1 118.437500 126.114949 2.500000 0.45612652 -0.79003431 0.40962714 2.5 0 0 0
1140 1 119.687500 128.280013 2.500000 0.33094272 -0.92747263 -0.17398689 2.5 0 0 0
1141 1 48.437500 0.541266 2.500000 0.00000000 -0.43322128 -0.90128759 2.5 0 0 0
1142 1 49.687500 2.706329 2.500000 -0.37518063 -0.21661064 -0.90128759 2.5 0 0 0
1143 1 50.937500 4.871393 2.500000 -0.73323847 0.00000000 -0.67997158 2.5 0 0 0
1144 1 52.187500 7.036456 2.500000 -0.96868622 0.17713151 -0.17398689 2.5 0 0 0
1145 1 53.437500 9.201520 2.500000 -0.84243424 0.19527735 0.50216662 2.5 0 0 0
1146 1 54.687500 11.366583 2.500000 -0.36484540 0.00000000 0.93106811 2.5 0 0 0
1147 1 55.937500 13.531647 2.500000 0.18242270 -0.31596539 0.93106811 2.5 0 0 0
1148 1 57.187500 15.696710 2.500000 0.59033226 -0.63193078 0.50216662 2.5 0 0 0
1149 1 58.437500 17.861774 2.500000 0.63774350 -0.75034112 -0.17398689 2.5 0 0 0
1150 1 59.687500 20.026837 2.500000 0.36661923 -0.63500314 -0.67997158 2.5 0 0 0
1151 1 60.937500 22.191901 2.500000 -0.00000000 -0.43322128 -0.90128759 2.5 0 0 0
1152 1 62.187500 24.356964 2.500000 -0.37518063 -0.21661064 -0.90128759 2.5 0 0 0
1153 1 63.437500 26.522028 2.500000 -0.73323847 0.00000000 -0.67997158 2.5 0 0 0
1154 1 64.687500 28.687092 2.500000 -0.96868622 0.17713151 -0.17398689 2.5 0 0 0
1155 1 65.937500 30.852155 2.500000 -0.84243424 0.19527735 0.50216662 2.5 0 0 0
1156 1 67.187500 33.017219 2.500000 -0.36484540 0.00000000 0.93106811 2.5 0 0 0
1157 1 68.437500 35.182282 2.500000 0.18242270 -0.31596539 0.93106811 2.5 0 0 0
1158 1 69.687500 37.347346 2.500000 0.59033226 -0.63193078 0.50216662 2.5 0 0 0
1159 1 70.937500 39.512409 2.500000 0.63774350 -0.75034112 -0.17398689 2.5 0 0 0
1160 1 72.187500 41.677473 2.500000 0.36661923 -0.63500314 -0.67997158 2.5 0 0 0
1161 1 73.437500 43.842536 2.500000 0.00000000 -0.43322128 -0.90128759 2.5 0 0 0
1162 1 74.687500 46.007600 2.500000 -0.37518063 -0.21661064 -0.90128759 2.5 0 0 0
1163 1 75.937500 48.172663 2.500000 -0.73323847 -0.00000000 -0.67997158 2.5 0 0 0
1164 1 77.187500 50.337727 2.500000 -0.96868622 0.17713151 -0.17398689 2.5 0 0 0
1165 1 78.437500 52.502790 2.500000 -0.84243424 0.19527735 0.50216662 2.5 0 0 0
1166 1 79.687500 54.667854 2.500000 -0.36484540 -0.00000000 0.93106811 2.5 0 0 0
1167 1 80.937500 56.832917 2.500000 0.18242270 -0.31596539 0.93106811 2.5 0 0 0
1168 1 82.187500 58.997981 2.500000 0.59033226 -0.63193078 0.50216662 2.5 0 0 0
1169 1 83.437500 61.163044 2.500000 0.63774350 -0.75034112 -0.17398689 2.5 0 0 0
1170 1 84.687500 63.328108 2.500000 0.36661923 -0.63500314 -0.67997158 2.5 0 0 0
1171 1 85.937500 65.493171 2.500000 0.00000000 -0.43322128 -0.90128759 2.5 0 0 0
1172 1 87.187500 67.658235 2.500000 -0.37518063 -0.21661064 -0.90128759 2.5 0 0 0
1173 1 88.437500 69.823298 2.500000 -0.73323847 0.00000000 -0.67997158 2.5 0 0 0
1174 1 89.687500 71.988362 2.500000 -0.96868622 0.17713151 -0.17398689 2.5 0 0 0
1175 1 90.937500 74.153425 2.500000 -0.84243424 0.19527735 0.50216662 2.5 0 0 0
1176 1 92.187500 76.318489 2.500000 -0.36484540 0.00000000 0.93106811 2.5 0 0 0
1177 1 93.437500 78.483552 2.500000 0.18242270 -0.31596539 0.93106811 2.5 0 0 0
1178 1 94.687500 80.648616 2.500000 0.59033226 -0.63193078 0.50216662 2.5 0 0 0
1179 1 95.937500 82.813679 2.500000 0.63774350 -0.75034112 -0.17398689 2.5 0 0 0
1180 1 97.187500 84.978743 2.500000 0.36661923 -0.63500314 -0.67997158 2.5 0 0 0
1181 1 98.437500 87.143806 2.500000 0.00000000 -0.43322128 -0.90128759 2.5 0 0 0
1182 1 99.687500 89.308870 2.500000 -0.37518063 -0.21661064 -0.90128759 2.5 0 0 0
1183 1 100.937500 91.473933 2.500000 -0.73323847 0.00000000 -0.67997158 2.5 0 0 0
1184 1 102.187500 93.638997 2.500000 -0.96868622 0.17713151 -0.17398689 2.5 0 0 0
1185 1 103.437500 95.804060 2.500000 -0.84243424 0.19527735 0.50216662 2.5 0 0 0
1186 1 104.687500 97.969124 2.500000 -0.36484540 0.00000000 0.93106811 2.5 0 0 0
1187 1 105.937500 100.134187 2.500000 0.18242270 -0.31596539 0.93106811 2.5 0 0 0
1188 1 107.187500 102.299251 2.500000 0.59033226 -0.63193078 0.50216662 2.5 0 0 0
1189 1 108.437500 104.464314 2.500000 0.63774350 -0.75034112 -0.17398689 2.5 0 0 0
1190 1 109.687500 106.629378 2.500000 0.36661923 -0.63500314 -0.67997158 2.5 0 0 0
1191 1 110.937500 108.794441 2.500000 -0.00000000 -0.43322128 -0.90128759 2.5 0 0 0
1192 1 112.187500 110.959505 2.500000 -0.37518063 -0.21661064 -0.90128759 2.5 0 0 0
1193 1 113.437500 113.124568 2.500000 -0.73323847 0.00000000 -0.67997158 2.5 0 0 0
1194 1 114.687500 115.289632 2.500000 -0.96868622 0.17713151 -0.17398689 2.5 0 0 0
1195 1 115.937500 117.454695 2.500000 -0.84243424 0.19527735 0.50216662 2.5 0 0 0
1196 1 117.187500 119.619759 2.500000 -0.36484540 -0.00000000 0.93106811 2.5 0 0 0
1197 1 118.437500 121.784822 2.500000 0.18242270 -0.31596539 0.93106811 2.5 0 0 0
1198 1 119.687500 123.949886 2.500000 0.59033226 -0.63193078 0.50216662 2.5 0 0 0
1199 1 120.937500 126.114949 2.500000 0.63774350 -0.75034112 -0.17398689 2.5 0 0 0
1200 1 122.187500 128.280013 2.500000 0.36661923 -0.63500314 -0.67997158 2.5 0 0 0
1201 1 50.937500 0.541266 2.500000 0.00000000 0.00000000 -1.00000000 2.5 0 0 0
1202 1 52.187500 2.706329 2.500000 -0.37518063 0.21661064 -0.90128759 2.5 0 0 0
1203 1 53.437500 4.871393 2.500000 -0.71656692 0.41371011 -0.56158329 2.5 0 0 0
1204 1 54.687500 7.036456 2.500000 -0.86381072 0.49872135 0.07147071 2.5 0 0 0
1205 1 55.937500 9.201520 2.500000 -0.58307814 0.33664032 0.73938702 2.5 0 0 0
1206 1 57.187500 11.366583 2.500000 0.00000000 0.00000000 1.00000000 2.5 0 0 0
1207 1 58.437500 13.531647 2.500000 0.58307814 -0.33664032 0.73938702 2.5 0 0 0
1208 1 59.687500 15.696710 2.500000 0.86381072 -0.49872135 0.07147071 2.5 0 0 0
1209 1 60.937500 17.861774 2.500000 0.71656692 -0.41371011 -0.56158329 2.5 0 0 0
1210 1 62.187500 20.026837 2.500000 0.37518063 -0.21661064 -0.90128759 2.5 0 0 0
1211 1 63.437500 22.191901 2.500000 0.00000000 0.00000000 -1.00000000 2.5 0 0 0
1212 1 64.687500 24.356964 2.500000 -0.37518063 0.21661064 -0.90128759 2.5 0 0 0
1213 1 65.937500 26.522028 2.500000 -0.71656692 0.41371011 -0.56158329 2.5 0 0 0
1214 1 67.187500 28.687092 2.500000 -0.86381072 0.49872135 0.07147071 2.5 0 0 0
1215 1 68.437500 30.852155 2.500000 -0.58307814 0.33664032 0.73938702 2.5 0 0 0
1216 1 69.687500 33.017219 2.500000 0.00000000 -0.00000000 1.00000000 2.5 0 0 0
1217 1 70.937500 35.182282 2.500000 0.58307814 -0.33664032 0.73938702 2.5 0 0 0
1218 1 72.187500 37.347346 2.500000 0.86381072 -0.49872135 0.07147071 2.5 0 0 0
1219 1 73.437500 39.512409 2.500000 0.71656692 -0.41371011 -0.56158329 2.5 0 0 0
1220 1 74.687500 41.677473 2.500000 0.37518063 -0.21661064 -0.90128759 2.5 0 0 0
1221 1 75.937500 43.842536 2.500000 0.00000000 -0.00000000 -1.00000000 2.5 0 0 0
1222 1 77.187500 46.007600 2.500000 -0.37518063 0.21661064 -0.90128759 2.5 0 0 0
1223 1 78.437500 48.172663 2.500000 -0.71656692 0.41371011 -0.56158329 2.5 0 0 0
1224 1 79.687500 50.337727 2.500000 -0.86381072 0.49872135 0.07147071 2.5 0 0 0
1225 1 80.937500 52.502790 2.500000 -0.58307814 0.33664032 0.73938702 2.5 0 0 0
1226 1 82.187500 54.667854 2.500000 0.00000000 -0.00000000 1.00000000 2.5 0 0 0
1227 1 83.437500 56.832917 2.500000 0.58307814 -0.33664032 0.73938702 2.5 0 0 0
1228 1 84.687500 58.997981 2.500000 0.86381072 -0.49872135 0.07147071 2.5 0 0 0
1229 1 85.937500 61.163044 2.500000 0.71656692 -0.41371011 -0.56158329 2.5 0 0 0
1230 1 87.187500 63.328108 2.500000 0.37518063 -0.21661064 -0.90128759 2.5 0 0 0
1231 1 88.437500 65.493171 2.500000 0.00000000 0.00000000 -1.00000000 2.5 0 0 0
1232 1 89.687500 67.658235 2.500000 -0.37518063 0.21661064 -0.90128759 2.5 0 0 0
1233 1 90.937500 69.823298 2.500000 -0.71656692 0.41371011 -0.56158329 2.5 0 0 0
1234 1 92.187500 71.988362 2.500000 -0.86381072 0.49872135 0.07147071 2.5 0 0 0
1235 1 93.437500 74.153425 2.500000 -0.58307814 0.33664032 0.73938702 2.5 0 0 0
1236 1 94.687500 76.318489 2.500000 0.00000000 -0.00000000 1.00000000 2.5 0 0 0
1237 1 95.937500 78.483552 2.500000 0.58307814 -0.33664032 0.73938702 2.5 0 0 0
1238 1 97.187500 80.648616 2.500000 0.86381072 -0.49872135 0.07147071 2.5 0 0 0
1239 1 98.437500 82.813679 2.500000 0.71656692 -0.41371011 -0.56158329 2.5 0 0 0
1240 1 99.687500 84.978743 2.500000 0.37518063 -0.21661064 -0.90128759 2.5 0 0 0
1241 1 100.937500 87.143806 2.500000 0.00000000 0.00000000 -1.00000000 2.5 0 0 0
1242 1 102.187500 89.308870 2.500000 -0.37518063 0.21661064 -0.90128759 2.5 0 0 0
1243 1 103.437500 91.473933 2.500000 -0.71656692 0.41371011 -0.56158329 2.5 0 0 0
1244 1 104.687500 93.638997 2.500000 -0.86381072 0.49872135 0.07147071 2.5 0 0 0
1245 1 105.937500 95.804060 2.500000 -0.58307814 0.33664032 0.73938702 2.5 0 0 0
1246 1 107.187500 97.969124 2.500000 0.00000000 -0.00000000 1.00000000 2.5 0 0 0
1247 1 108.437500 100.134187 2.500000 0.58307814 -0.33664032 0.73938702 2.5 0 0 0
1248 1 109.687500 102.299251 2.500000 0.86381072 -0.49872135 0.07147071 2.5 0 0 0
1249 1 110.937500 104.464314 2.500000 0.71656692 -0.41371011 -0.56158329 2.5 0 0 0
1250 1 112.187500 106.629378 2.500000 0.37518063 -0.21661064 -0.90128759 2.5 0 0 0
1251 1 113.437500 108.794441 2.500000 -0.00000000 0.00000000 -1.00000000 2.5 0 0 0
1252 1 114.687500 110.959505 2.500000 -0.37518063 0.21661064 -0.90128759 2.5 0 0 0
1253 1 115.937500 113.124568 2.500000 -0.71656692 0.41371011 -0.56158329 2.5 0 0 0
1254 1 117.187500 115.289632 2.500000 -0.86381072 0.49872135 0.07147071 2.5 0 0 0
1255 1 118.437500 117.454695 2.500000 -0.58307814 0.33664032 0.73938702 2.5 0 0 0
1256 1 119.687500 119.619759 2.500000 0.00000000 -0.00000000 1.00000000 2.5 0 0 0
1257 1 120.937500 121.784822 2.500000 0.58307814 -0.33664032 0.73938702 2.5 0 0 0
1258 1 122.187500 123.949886 2.500000 0.86381072 -0.49872135 0.07147071 2.5 0 0 0
1259 1 123.437500 126.114949 2.500000 0.71656692 -0.41371011 -0.56158329 2.5 0 0 0
1260 1 124.687500 128.280013 2.500000 0.37518063 -0.21661064 -0.90128759 2.5 0 0 0
1261 1 53.437500 0.541266 2.500000 0.00000000 0.43322128 -0.90128759 2.5 0 0 0
1262 1 54.687500 2.706329 2.500000 -0.36661923 0.63500314 -0.67997158 2.5 0 0 0
1263 1 55.937500 4.871393 2.500000 -0.63774350 0.75034112 -0.17398689 2.5 0 0 0
1264 1 57.187500 7.036456 2.500000 -0.59033226 0.63193078 0.50216662 2.5 0 0 0
1265 1 58.437500 9.201520 2.500000 -0.18242270 0.31596539 0.93106811 2.5 0 0 0
1266 1 59.687500 11.366583 2.500000 0.36484540 0.00000000 0.93106811 2.5 0 0 0
1267 1 60.937500 13.531647 2.500000 0.84243424 -0.19527735 0.50216662 2.5 0 0 0
1268 1 62.187500 15.696710 2.500000 0.96868622 -0.17713151 -0.17398689 2.5 0 0 0
1269 1 63.437500 17.861774 2.500000 0.73323847 0.00000000 -0.67997158 2.5 0 0 0
1270 1 64.687500 20.026837 2.500000 0.37518063 0.21661064 -0.90128759 2.5 0 0 0
1271 1 65.937500 22.191901 2.500000 0.00000000 0.43322128 -0.90128759 2.5 0 0 0
1272 1 67.187500 24.356964 2.500000 -0.36661923 0.63500314 -0.67997158 2.5 0 0 0
1273 1 68.437500 26.522028 2.500000 -0.63774350 0.75034112 -0.17398689 2.5 0 0 0
1274 1 69.687500 28.687092 2.500000 -0.59033226 0.63193078 0.50216662 2.5 0 0 0
1275 1 70.937500 30.852155 2.500000 -0.18242270 0.31596539 0.93106811 2.5 0 0 0
1276 1 72.187500 33.017219 2.500000 0.36484540 0.00000000 0.93106811 2.5 0 0 0
1277 1 73.437500 35.182282 2.500000 0.84243424 -0.19527735 0.50216662 2.5 0 0 0
1278 1 74.687500 37.347346 2.500000 0.96868622 -0.17713151 -0.17398689 2.5 0 0 0
1279 1 75.937500 39.512409 2.500000 0.73323847 -0.00000000 -0.67997158 2.5 0 0 0
1280 1 77.187500 41.677473 2.500000 0.37518063 0.21661064 -0.90128759 2.5 0 0 0
1281 1 78.437500 43.842536 2.500000 0.00000000 0.43322128 -0.90128759 2.5 0 0 0
1282 1 79.687500 46.007600 2.500000 -0.36661923 0.63500314 -0.67997158 2.5 0 0 0
1283 1 80.937500 48.172663 2.500000 -0.63774350 0.75034112 -0.17398689 2.5 0 0 0
1284 1 82.187500 50.337727 2.500000 -0.59033226 0.63193078 0.50216662 2.5 0 0 0
1285 1 83.437500 52.502790 2.500000 -0.18242270 0.31596539 0.93106811 2.5 0 0 0
1286 1 84.687500 54.667854 2.500000 0.36484540 -0.00000000 0.93106811 2.5 0 0 0
1287 1 85.937500 56.832917 2.500000 0.84243424 -0.19527735 0.50216662 2.5 0 0 0
1288 1 87.187500 58.997981 2.500000 0.96868622 -0.17713151 -0.17398689 2.5 0 0 0
1289 1 88.437500 61.163044 2.500000 0.73323847 0.00000000 -0.67997158 2.5 0 0 0
1290 1 89.687500 63.328108 2.500000 0.37518063 0.21661064 -0.90128759 2.5 0 0 0
1291 1 90.937500 65.493171 2.500000 0.00000000 0.43322128 -0.90128759 2.5 0 0 0
1292 1 92.187500 67.658235 2.500000 -0.36661923 0.63500314 -0.67997158 2.5 0 0 0
1293 1 93.437500 69.823298 2.500000 -0.63774350 0.75034112 -0.17398689 2.5 0 0 0
1294 1 94.687500 71.988362 2.500000 -0.59033226 0.63193078 0.50216662 2.5 0 0 0
1295 1 95.937500 74.153425 2.500000 -0.18242270 0.31596539 0.93106811 2.5 0 0 0
1296 1 97.187500 76.318489 2.500000 0.36484540 0.00000000 0.93106811 2.5 0 0 0
1297 1 98.437500 78.483552 2.500000 0.84243424 -0.19527735 0.50216662 2.5 0 0 0
1298 1 99.687500 80.648616 2.500000 0.96868622 -0.17713151 -0.17398689 2.5 0 0 0
1299 1 100.937500 82.813679 2.500000 0.73323847 0.00000000 -0.67997158 2.5 0 0 0
1300 1 102.187500 84.978743 2.500000 0.37518063 0.21661064 -0.90128759 2.5 0 0 0
1301 1 103.437500 87.143806 2.500000 0.00000000 0.43322128 -0.90128759 2.5 0 0 0
1302 1 104.687500 89.308870 2.500000 -0.36661923 0.63500314 -0.67997158 2.5 0 0 0
1303 1 105.937500 91.473933 2.500000 -0.63774350 0.75034112 -0.17398689 2.5 0 0 0
1304 1 107.187500 93.638997 2.500000 -0.59033226 0.63193078 0.50216662 2.5 0 0 0
1305 1 108.437500 95.804060 2.500000 -0.18242270 0.31596539 0.93106811 2.5 0 0 0
1306 1 109.687500 97.969124 2.500000 0.36484540 0.00000000 0.93106811 2.5 0 0 0
1307 1 110.937500 100.134187 2.500000 0.84243424 -0.19527735 0.50216662 2.5 0 0 0
1308 1 112.187500 102.299251 2.500000 0.96868622 -0.17713151 -0.17398689 2.5 0 0 0
1309 1 113.437500 104.464314 2.500000 0.73323847 0.00000000 -0.67997158 2.5 0 0 0
1310 1 114.687500 106.629378 2.500000 0.37518063 0.21661064 -0.90128759 2.5 0 0 0
1311 1 115.937500 108.794441 2.500000 -0.00000000 0.43322128 -0.90128759 2.5 0 0 0
1312 1 117.187500 110.959505 2.500000 -0.36661923 0.63500314 -0.67997158 2.5 0 0 0
1313 1 118.437500 113.124568 2.500000 -0.63774350 0.75034112 -0.17398689 2.5 0 0 0
1314 1 119.687500 115.289632 2.500000 -0.59033226 0.63193078 0.50216662 2.5 0 0 0
1315 1 120.937500 117.454695 2.500000 -0.18242270 0.31596539 0.93106811 2.5 0 0 0
1316 1 122.187500 119.619759 2.500000 0.36484540 0.00000000 0.93106811 2.5 0 0 0
1317 1 123.437500 121.784822 2.500000 0.84243424 -0.19527735 0.50216662 2.5 0 0 0
1318 1 124.687500 123.949886 2.500000 0.96868622 -0.17713151 -0.17398689 2.5 0 0 0
1319 1 125.937500 126.114949 2.500000 0.73323847 0.00000000 -0.67997158 2.5 0 0 0
1320 1 127.187500 128.280013 2.500000 0.37518063 0.21661064 -0.90128759 2.5 0 0 0
1321 1 55.937500 0.541266 2.500000 0.00000000 0.82742021 -0.56158329 2.5 0 0 0
1322 1 57.187500 2.706329 2.500000 -0.33094272 0.92747263 -0.17398689 2.5 0 0 0
1323 1 58.437500 4.871393 2.500000 -0.45612652 0.79003431 0.40962714 2.5 0 0 0
1324 1 59.687500 7.036456 2.500000 -0.26773829 0.46373631 0.84455008 2.5 0 0 0
1325 1 60.937500 9.201520 2.500000 0.09844051 0.17050396 0.98042739 2.5 0 0 0
1326 1 62.187500 11.366583 2.500000 0.53547657 -0.00000000 0.84455008 2.5 0 0 0
1327 1 63.437500 13.531647 2.500000 0.91225304 0.00000000 0.40962714 2.5 0 0 0
1328 1 64.687500 15.696710 2.500000 0.96868622 0.17713151 -0.17398689 2.5 0 0 0
1329 1 65.937500 17.861774 2.500000 0.71656692 0.41371011 -0.56158329 2.5 0 0 0
1330 1 67.187500 20.026837 2.500000 0.36661923 0.63500314 -0.67997158 2.5 0 0 0
1331 1 68.437500 22.191901 2.500000 0.00000000 0.82742021 -0.56158329 2.5 0 0 0
1332 1 69.687500 24.356964 2.500000 -0.33094272 0.92747263 -0.17398689 2.5 0 0 0
1333 1 70.937500 26.522028 2.500000 -0.45612652 0.79003431 0.40962714 2.5 0 0 0
1334 1 72.187500 28.687092 2.500000 -0.26773829 0.46373631 0.84455008 2.5 0 0 0
1335 1 73.437500 30.852155 2.500000 0.09844051 0.17050396 0.98042739 2.5 0 0 0
1336 1 74.687500 33.017219 2.500000 0.53547657 -0.00000000 0.84455008 2.5 0 0 0
1337 1 75.937500 35.182282 2.500000 0.91225304 -0.00000000 0.40962714 2.5 0 0 0
1338 1 77.187500 37.347346 2.500000 0.96868622 0.17713151 -0.17398689 2.5 0 0 0
1339 1 78.437500 39.512409 2.500000 0.71656692 0.41371011 -0.56158329 2.5 0 0 0
1340 1 79.687500 41.677473 2.500000 0.36661923 0.63500314 -0.67997158 2.5 0 0 0
1341 1 80.937500 43.842536 2.500000 0.00000000 0.82742021 -0.56158329 2.5 0 0 0
1342 1 82.187500 46.007600 2.500000 -0.33094272 0.92747263 -0.17398689 2.5 0 0 0
1343 1 83.437500 48.172663 2.500000 -0.45612652 0.79003431 0.40962714 2.5 0 0 0
1344 1 84.687500 50.337727 2.500000 -0.26773829 0.46373631 0.84455008 2.5 0 0 0
1345 1 85.937500 52.502790 2.500000 0.09844051 0.17050396 0.98042739 2.5 0 0 0
1346 1 87.187500 54.667854 2.500000 0.53547657 -0.00000000 0.84455008 2.5 0 0 0
1347 1 88.437500 56.832917 2.500000 0.91225304 0.00000000 0.40962714 2.5 0 0 0
1348 1 89.687500 58.997981 2.500000 0.96868622 0.17713151 -0.17398689 2.5 0 0 0
1349 1 90.937500 61.163044 2.500000 0.71656692 0.41371011 -0.56158329 2.5 0 0 0
1350 1 92.187500 63.328108 2.500000 0.36661923 0.63500314 -0.67997158 2.5 0 0 0
1351 1 93.437500 65.493171 2.500000 0.00000000 0.82742021 -0.56158329 2.5 0 0 0
1352 1 94.687500 67.658235 2.500000 -0.33094272 0.92747263 -0.17398689 2.5 0 0 0
1353 1 95.937500 69.823298 2.500000 -0.45612652 0.79003431 0.40962714 2.5 0 0 0
1354 1 97.187500 71.988362 2.500000 -0.26773829 0.46373631 0.84455008 2.5 0 0 0
1355 1 98.437500 74.153425 2.500000 0.09844051 0.17050396 0.98042739 2.5 0 0 0
1356 1 99.687500 76.318489 2.500000 0.53547657 -0.00000000 0.84455008 2.5 0 0 0
1357 1 100.937500 78.483552 2.500000 0.91225304 0.00000000 0.40962714 2.5 0 0 0
1358 1 102.187500 80.648616 2.500000 0.96868622 0.17713151 -0.17398689 2.5 0 0 0
1359 1 103.437500 82.813679 2.500000 0.71656692 0.41371011 -0.56158329 2.5 0 0 0
1360 1 104.687500 84.978743 2.500000 0.36661923 0.63500314 -0.67997158 2.5 0 0 0
1361 1 105.937500 87.143806 2.500000 0.00000000 0.82742021 -0.56158329 2.5 0 0 0
1362 1 107.187500 89.308870 2.500000 -0.33094272 0.92747263 -0.17398689 2.5 0 0 0
1363 1 108.437500 91.473933 2.500000 -0.45612652 0.79003431 0.40962714 2.5 0 0 0
1364 1 109.687500 93.638997 2.500000 -0.26773829 0.46373631 0.84455008 2.5 0 0 0
1365 1 110.937500 95.804060 2.500000 0.09844051 0.17050396 0.98042739 2.5 0 0 0
1366 1 112.187500 97.969124 2.500000 0.53547657 -0.00000000 0.84455008 2.5 0 0 0
1367 1 113.437500 100.134187 2.500000 0.91225304 0.00000000 0.40962714 2.5 0 0 0
1368 1 114.687500 102.299251 2.500000 0.96868622 0.17713151 -0.17398689 2.5 0 0 0
1369 1 115.937500 104.464314 2.500000 0.71656692 0.41371011 -0.56158329 2.5 0 0 0
1370 1 117.187500 106.629378 2.500000 0.36661923 0.63500314 -0.67997158 2.5 0 0 0
1371 1 118.437500 108.794441 2.500000 -0.00000000 0.82742021 -0.56158329 2.5 0 0 0
1372 1 119.687500 110.959505 2.500000 -0.33094272 0.92747263 -0.17398689 2.5 0 0 0
1373 1 120.937500 113.124568 2.500000 -0.45612652 0.79003431 0.40962714 2.5 0 0 0
1374 1 122.187500 115.289632 2.500000 -0.26773829 0.46373631 0.84455008 2.5 0 0 0
1375 1 123.437500 117.454695 2.500000 0.09844051 0.17050396 0.98042739 2.5 0 0 0
1376 1 124.687500 119.619759 2.500000 0.53547657 -0.00000000 0.84455008 2.5 0 0 0
1377 1 125.937500 121.784822 2.500000 0.91225304 0.00000000 0.40962714 2.5 0 0 0
1378 1 127.187500 123.949886 2.500000 0.96868622 0.17713151 -0.17398689 2.5 0 0 0
1379 1 128.437500 126.114949 2.500000 0.71656692 0.41371011 -0.56158329 2.5 0 0 0
1380 1 129.687500 128.280013 2.500000 0.36661923 0.63500314 -0.67997158 2.5 0 0 0
1381 1 58.437500 0.541266 2.500000 0.00000000 0.99744270 0.07147071 2.5 0 0 0
1382 1 59.687500 2.706329 2.500000 -0.25210197 0.82720813 0.50216662 2.5 0 0 0
1383 1 60.937500 4.871393 2.500000 -0.26773829 0.46373631 0.84455008 2.5 0 0 0
1384 1 62.187500 7.036456 2.500000 -0.09262434 0.16043006 0.98269167 2.5 0 0 0
1385 1 63.437500 9.201520 2.500000 0.18524868 -0.00000000 0.98269167 2.5 0 0 0
1386 1 64.687500 11.366583 2.500000 0.53547657 -0.00000000 0.84455008 2.5 0 0 0
1387 1 65.937500 13.531647 2.500000 0.84243424 0.19527735 0.50216662 2.5 0 0 0
1388 1 67.187500 15.696710 2.500000 0.86381072 0.49872135 0.07147071 2.5 0 0 0
1389 1 68.437500 17.861774 2.500000 0.63774350 0.75034112 -0.17398689 2.5 0 0 0
1390 1 69.687500 20.026837 2.500000 0.33094272 0.92747263 -0.17398689 2.5 0 0 0
1391 1 70.937500 22.191901 2.500000 0.00000000 0.99744270 0.07147071 2.5 0 0 0
1392 1 72.187500 24.356964 2.500000 -0.25210197 0.82720813 0.50216662 2.5 0 0 0
1393 1 73.437500 26.522028 2.500000 -0.26773829 0.46373631 0.84455008 2.5 0 0 0
1394 1 74.687500 28.687092 2.500000 -0.09262434 0.16043006 0.98269167 2.5 0 0 0
1395 1 75.937500 30.852155 2.500000 0.18524868 0.00000000 0.98269167 2.5 0 0 0
1396 1 77.187500 33.017219 2.500000 0.53547657 -0.00000000 0.84455008 2.5 0 0 0
1397 1 78.437500 35.182282 2.500000 0.84243424 0.19527735 0.50216662 2.5 0 0 0
1398 1 79.687500 37.347346 2.500000 0.86381072 0.49872135 0.07147071 2.5 0 0 0
1399 1 80.937500 39.512409 2.500000 0.63774350 0.75034112 -0.17398689 2.5 0 0 0
1400 1 82.187500 41.677473 2.500000 0.33094272 0.92747263 -0.17398689 2.5 0 0 0
1401 1 83.437500 43.842536 2.500000 0.00000000 0.99744270 0.07147071 2.5 0 0 0
1402 1 84.687500 46.007600 2.500000 -0.25210197 0.82720813 0.50216662 2.5 0 0 0
1403 1 85.937500 48.172663 2.500000 -0.26773829 0.46373631 0.84455008 2.5 0 0 0
1404 1 87.187500 50.337727 2.500000 -0.09262434 0.16043006 0.98269167 2.5 0 0 0
1405 1 88.437500 52.502790 2.500000 0.18524868 -0.00000000 0.98269167 2.5 0 0 0
1406 1 89.687500 54.667854 2.500000 0.53547657 0.00000000 0.84455008 2.5 0 0 0
1407 1 90.937500 56.832917 2.500000 0.84243424 0.19527735 0.50216662 2.5 0 0 0
1408 1 92.187500 58.997981 2.500000 0.86381072 0.49872135 0.07147071 2.5 0 0 0
1409 1 93.437500 61.163044 2.500000 0.63774350 0.75034112 -0.17398689 2.5 0 0 0
1410 1 94.687500 63.328108 2.500000 0.33094272 0.92747263 -0.17398689 2.5 0 0 0
1411 1 95.937500 65.493171 2.500000 0.00000000 0.99744270 0.07147071 2.5 0 0 0
1412 1 97.187500 67.658235 2.500000 -0.25210197 0.82720813 0.50216662 2.5 0 0 0
1413 1 98.437500 69.823298 2.500000 -0.26773829 0.46373631 0.84455008 2.5 0 0 0
1414 1 99.687500 71.988362 2.500000 -0.09262434 0.16043006 0.98269167 2.5 0 0 0
1415 1 100.937500 74.153425 2.500000 0.18524868 -0.00000000 0.98269167 2.5 0 0 0
1416 1 102.187500 76.318489 2.500000 0.53547657 -0.00000000 0.84455008 2.5 0 0 0
1417 1 103.437500 78.483552 2.500000 0.84243424 0.19527735 0.50216662 2.5 0 0 0
1418 1 104.687500 80.648616 2.500000 0.86381072 0.49872135 0.07147071 2.5 0 0 0
1419 1 105.937500 82.813679 2.500000 0.63774350 0.75034112 -0.17398689 2.5 0 0 0
1420 1 107.187500 84.978743 2.500000 0.33094272 0.92747263 -0.17398689 2.5 0 0 0
1421 1 108.437500 87.143806 2.500000 0.00000000 0.99744270 0.07147071 2.5 0 0 0
1422 1 109.687500 89.308870 2.500000 -0.25210197 0.82720813 0.50216662 2.5 0 0 0
1423 1 110.937500 91.473933 2.500000 -0.26773829 0.46373631 0.84455008 2.5 0 0 0
1424 1 112.187500 93.638997 2.500000 -0.09262434 0.16043006 0.98269167 2.5 0 0 0
1425 1 113.437500 95.804060 2.500000 0.18524868 -0.00000000 0.98269167 2.5 0 0 0
1426 1 114.687500 97.969124 2.500000 0.53547657 -0.00000000 0.84455008 2.5 0 0 0
1427 1 115.937500 100.134187 2.500000 0.84243424 0.19527735 0.50216662 2.5 0 0 0
1428 1 117.187500 102.299251 2.500000 0.86381072 0.49872135 0.07147071 2.5 0 0 0
1429 1 118.437500 104.464314 2.500000 0.63774350 0.75034112 -0.17398689 2.5 0 0 0
1430 1 119.687500 106.629378 2.500000 0.33094272 0.92747263 -0.17398689 2.5 0 0 0
1431 1 120.937500 108.794441 2.500000 -0.00000000 0.99744270 0.07147071 2.5 0 0 0
1432 1 122.187500 110.959505 2.500000 -0.25210197 0.82720813 0.50216662 2.5 0 0 0
1433 1 123.437500 113.124568 2.500000 -0.26773829 0.46373631 0.84455008 2.5 0 0 0
1434 1 124.687500 115.289632 2.500000 -0.09262434 0.16043006 0.98269167 2.5 0 0 0
1435 1 125.937500 117.454695 2.500000 0.18524868 -0.00000000 0.98269167 2.5 0 0 0
1436 1 127.187500 119.619759 2.500000 0.53547657 0.00000000 0.84455008 2.5 0 0 0
1437 1 128.437500 121.784822 2.500000 0.84243424 0.19527735 0.50216662 2.5 0 0 0
1438 1 129.687500 123.949886 2.500000 0.86381072 0.49872135 0.07147071 2.5 0 0 0
1439 1 130.937500 126.114949 2.500000 0.63774350 0.75034112 -0.17398689 2.5 0 0 0
1440 1 132.187500 128.280013 2.500000 0.33094272 0.92747263 -0.17398689 2.5 0 0 0
1441 1 60.937500 0.541266 2.500000 0.00000000 0.67328065 0.73938702 2.5 0 0 0
1442 1 62.187500 2.706329 2.500000 -0.18242270 0.31596539 0.93106811 2.5 0 0 0
1443 1 63.437500 4.871393 2.500000 -0.19688101 -0.00000000 0.98042739 2.5 0 0 0
1444 1 64.687500 7.036456 2.500000 -0.09262434 -0.16043006 0.98269167 2.5 0 0 0
1445 1 65.937500 9.201520 2.500000 0.09844051 -0.17050396 0.98042739 2.5 0 0 0
1446 1 67.187500 11.366583 2.500000 0.36484540 0.00000000 0.93106811 2.5 0 0 0
1447 1 68.437500 13.531647 2.500000 0.58307814 0.33664032 0.73938702 2.5 0 0 0
1448 1 69.687500 15.696710 2.500000 0.59033226 0.63193078 0.50216662 2.5 0 0 0
1449 1 70.937500 17.861774 2.500000 0.45612652 0.79003431 0.40962714 2.5 0 0 0
1450 1 72.187500 20.026837 2.500000 0.25210197 0.82720813 0.50216662 2.5 0 0 0
1451 1 73.437500 22.191901 2.500000 0.00000000 0.67328065 0.73938702 2.5 0 0 0
1452 1 74.687500 24.356964 2.500000 -0.18242270 0.31596539 0.93106811 2.5 0 0 0
1453 1 75.937500 26.522028 2.500000 -0.19688101 0.00000000 0.98042739 2.5 0 0 0
1454 1 77.187500 28.687092 2.500000 -0.09262434 -0.16043006 0.98269167 2.5 0 0 0
1455 1 78.437500 30.852155 2.500000 0.09844051 -0.17050396 0.98042739 2.5 0 0 0
1456 1 79.687500 33.017219 2.500000 0.36484540 0.00000000 0.93106811 2.5 0 0 0
1457 1 80.937500 35.182282 2.500000 0.58307814 0.33664032 0.73938702 2.5 0 0 0
1458 1 82.187500 37.347346 2.500000 0.59033226 0.63193078 0.50216662 2.5 0 0 0
1459 1 83.437500 39.512409 2.500000 0.45612652 0.79003431 0.40962714 2.5 0 0 0
1460 1 84.687500 41.677473 2.500000 0.25210197 0.82720813 0.50216662 2.5 0 0 0
1461 1 85.937500 43.842536 2.500000 0.00000000 0.67328065 0.73938702 2.5 0 0 0
1462 1 87.187500 46.007600 2.500000 -0.18242270 0.31596539 0.93106811 2.5 0 0 0
1463 1 88.437500 48.172663 2.500000 -0.19688101 -0.00000000 0.98042739 2.5 0 0 0
1464 1 89.687500 50.337727 2.500000 -0.09262434 -0.16043006 0.98269167 2.5 0 0 0
1465 1 90.937500 52.502790 2.500000 0.09844051 -0.17050396 0.98042739 2.5 0 0 0
1466 1 92.187500 54.667854 2.500000 0.36484540 0.00000000 0.93106811 2.5 0 0 0
1467 1 93.437500 56.832917 2.500000 0.58307814 0.33664032 0.73938702 2.5 0 0 0
1468 1 94.687500 58.997981 2.500000 0.59033226 0.63193078 0.50216662 2.5 0 0 0
1469 1 95.937500 61.163044 2.500000 0.45612652 0.79003431 0.40962714 2.5 0 0 0
1470 1 97.187500 63.328108 2.500000 0.25210197 0.82720813 0.50216662 2.5 0 0 0
1471 1 98.437500 65.493171 2.500000 0.00000000 0.67328065 0.73938702 2.5 0 0 0
1472 1 99.687500 67.658235 2.500000 -0.18242270 0.31596539 0.93106811 2.5 0 0 0
1473 1 100.937500 69.823298 2.500000 -0.19688101 -0.00000000 0.98042739 2.5 0 0 0
1474 1 102.187500 71.988362 2.500000 -0.09262434 -0.16043006 0.98269167 2.5 0 0 0
1475 1 103.437500 74.153425 2.500000 0.09844051 -0.17050396 0.98042739 2.5 0 0 0
1476 1 104.687500 76.318489 2.500000 0.36484540 0.00000000 0.93106811 2.5 0 0 0
1477 1 105.937500 78.483552 2.500000 0.58307814 0.33664032 0.73938702 2.5 0 0 0
1478 1 107.187500 80.648616 2.500000 0.59033226 0.63193078 0.50216662 2.5 0 0 0
1479 1 108.437500 82.813679 2.500000 0.45612652 0.79003431 0.40962714 2.5 0 0 0
1480 1 109.687500 84.978743 2.500000 0.25210197 0.82720813 0.50216662 2.5 0 0 0
1481 1 110.937500 87.143806 2.500000 -0.00000000 0.67328065 0.73938702 2.5 0 0 0
1482 1 112.187500 89.308870 2.500000 -0.18242270 0.31596539 0.93106811 2.5 0 0 0
1483 1 113.437500 91.473933 2.500000 -0.19688101 -0.00000000 0.98042739 2.5 0 0 0
1484 1 114.687500 93.638997 2.500000 -0.09262434 -0.16043006 0.98269167 2.5 0 0 0
1485 1 115.937500 95.804060 2.500000 0.09844051 -0.17050396 0.98042739 2.5 0 0 0
1486 1 117.187500 97.969124 2.500000 0.36484540 0.00000000 0.93106811 2.5 0 0 0
1487 1 118.437500 100.134187 2.500000 0.58307814 0.33664032 0.73938702 2.5 0 0 0
1488 1 119.687500 102.299251 2.500000 0.59033226 0.63193078 0.50216662 2.5 0 0 0
1489 1 120.937500 104.464314 2.500000 0.45612652 0.79003431 0.40962714 2.5 0 0 0
1490 1 122.187500 106.629378 2.500000 0.25210197 0.82720813 0.50216662 2.5 0 0 0
1491 1 123.437500 108.794441 2.500000 -0.00000000 0.67328065 0.73938702 2.5 0 0 0
1492 1 124.687500 110.959505 2.500000 -0.18242270 0.31596539 0.93106811 2.5 0 0 0
1493 1 125.937500 113.124568 2.500000 -0.19688101 -0.00000000 0.98042739 2.5 0 0 0
1494 1 127.187500 115.289632 2.500000 -0.09262434 -0.16043006 0.98269167 2.5 0 0 0
1495 1 128.437500 117.454695 2.500000 0.09844051 -0.17050396 0.98042739 2.5 0 0 0
1496 1 129.687500 119.619759 2.500000 0.36484540 0.00000000 0.93106811 2.5 0 0 0
1497 1 130.937500 121.784822 2.500000 0.58307814 0.33664032 0.73938702 2.5 0 0 0
1498 1 132.187500 123.949886 2.500000 0.59033226 0.63193078 0.50216662 2.5 0 0 0
1499 1 133.437500 126.114949 2.500000 0.45612652 0.79003431 0.40962714 2.5 0 0 0
1500 1 134.687500 128.280013 2.500000 0.25210197 0.82720813 0.50216662 2.5 0 0 0
1501 1 63.437500 0.541266 2.500000 0.00000000 -0.00000000 1.00000000 2.5 0 0 0
1502 1 64.687500 2.706329 2.500000 -0.18242270 -0.31596539 0.93106811 2.5 0 0 0
1503 1 65.937500 4.871393 2.500000 -0.26773829 -0.46373631 0.84455008 2.5 0 0 0
1504 1 67.187500 7.036456 2.500000 -0.26773829 -0.46373631 0.84455008 2.5 0 0 0
1505 1 68.437500 9.201520 2.500000 -0.18242270 -0.31596539 0.93106811 2.5 0 0 0
1506 1 69.687500 11.366583 2.500000 -0.00000000 -0.00000000 1.00000000 2.5 0 0 0
1507 1 70.937500 13.531647 2.500000 0.18242270 0.31596539 0.93106811 2.5 0 0 0
1508 1 72.187500 15.696710 2.500000 0.26773829 0.46373631 0.84455008 2.5 0 0 0
1509 1 73.437500 17.861774 2.500000 0.26773829 0.46373631 0.84455008 2.5 0 0 0
1510 1 74.687500 20.026837 2.500000 0.18242270 0.31596539 0.93106811 2.5 0 0 0
1511 1 75.937500 22.191901 2.500000 0.00000000 0.00000000 1.00000000 2.5 0 0 0
1512 1 77.187500 24.356964 2.500000 -0.18242270 -0.31596539 0.93106811 2.5 0 0 0
1513 1 78.437500 26.522028 2.500000 -0.26773829 -0.46373631 0.84455008 2.5 0 0 0
1514 1 79.687500 28.687092 2.500000 -0.26773829 -0.46373631 0.84455008 2.5 0 0 0
1515 1 80.937500 30.852155 2.500000 -0.18242270 -0.31596539 0.93106811 2.5 0 0 0
1516 1 82.187500 33.017219 2.500000 -0.00000000 -0.00000000 1.00000000 2.5 0 0 0
1517 1 83.437500 35.182282 2.500000 0.18242270 0.31596539 0.93106811 2.5 0 0 0
1518 1 84.687500 37.347346 2.500000 0.26773829 0.46373631 0.84455008 2.5 0 0 0
1519 1 85.937500 39.512409 2.500000 0.26773829 0.46373631 0.84455008 2.5 0 0 0
1520 1 87.187500 41.677473 2.500000 0.18242270 0.31596539 0.93106811 2.5 0 0 0
1521 1 88.437500 43.842536 2.500000 0.00000000 -0.00000000 1.00000000 2.5 0 0 0
1522 1 89.687500 46.007600 2.500000 -0.18242270 -0.31596539 0.93106811 2.5 0 0 0
1523 1 90.937500 48.172663 2.500000 -0.26773829 -0.46373631 0.84455008 2.5 0 0 0
1524 1 92.187500 50.337727 2.500000 -0.26773829 -0.46373631 0.84455008 2.5 0 0 0
1525 1 93.437500 52.502790 2.500000 -0.18242270 -0.31596539 0.93106811 2.5 0 0 0
1526 1 94.687500 54.667854 2.500000 0.00000000 0.00000000 1.00000000 2.5 0 0 0
1527 1 95.937500 56.832917 2.500000 0.18242270 0.31596539 0.93106811 2.5 0 0 0
1528 1 97.187500 58.997981 2.500000 0.26773829 0.46373631 0.84455008 2.5 0 0 0
1529 1 98.437500 61.163044 2.500000 0.26773829 0.46373631 0.84455008 2.5 0 0 0
1530 1 99.687500 63.328108 2.500000 0.18242270 0.31596539 0.93106811 2.5 0 0 0
1531 1 100.937500 65.493171 2.500000 0.00000000 -0.00000000 1.00000000 2.5 0 0 0
1532 1 102.187500 67.658235 2.500000 -0.18242270 -0.31596539 0.93106811 2.5 0 0 0
1533 1 103.437500 69.823298 2.500000 -0.26773829 -0.46373631 0.84455008 2.5 0 0 0
1534 1 104.687500 71.988362 2.500000 -0.26773829 -0.46373631 0.84455008 2.5 0 0 0
1535 1 105.937500 74.153425 2.500000 -0.18242270 -0.31596539 0.93106811 2.5 0 0 0
1536 1 107.187500 76.318489 2.500000 -0.00000000 -0.00000000 1.00000000 2.5 0 0 0
1537 1 108.437500 78.483552 2.500000 0.18242270 0.31596539 0.93106811 2.5 0 0 0
1538 1 109.687500 80.648616 2.500000 0.26773829 0.46373631 0.84455008 2.5 0 0 0
1539 1 110.937500 82.813679 2.500000 0.26773829 0.46373631 0.84455008 2.5 0 0 0
1540 1 112.187500 84.978743 2.500000 0.18242270 0.31596539 0.93106811 2.5 0 0 0
1541 1 113.437500 87.143806 2.500000 0.00000000 -0.00000000 1.00000000 2.5 0 0 0
1542 1 114.687500 89.308870 2.500000 -0.18242270 -0.31596539 0.93106811 2.5 0 0 0
1543 1 115.937500 91.473933 2.500000 -0.26773829 -0.46373631 0.84455008 2.5 0 0 0
1544 1 117.187500 93.638997 2.500000 -0.26773829 -0.46373631 0.84455008 2.5 0 0 0
1545 1 118.437500 95.804060 2.500000 -0.18242270 -0.31596539 0.93106811 2.5 0 0 0
1546 1 119.687500 97.969124 2.500000 -0.00000000 -0.00000000 1.00000000 2.5 0 0 0
1547 1 120.937500 100.134187 2.500000 0.18242270 0.31596539 0.93106811 2.5 0 0 0
1548 1 122.187500 102.299251 2.500000 0.26773829 0.46373631 0.84455008 2.5 0 0 0
1549 1 123.437500 104.464314 2.500000 0.26773829 0.46373631 0.84455008 2.5 0 0 0
1550 1 124.687500 106.629378 2.500000 0.18242270 0.31596539 0.93106811 2.5 0 0 0
1551 1 125.937500 108.794441 2.500000 -0.00000000 -0.00000000 1.00000000 2.5 0 0 0
1552 1 127.187500 110.959505 2.500000 -0.18242270 -0.31596539 0.93106811 2.5 0 0 0
1553 1 128.437500 113.124568 2.500000 -0.26773829 -0.46373631 0.84455008 2.5 0 0 0
1554 1 129.687500 115.289632 2.500000 -0.26773829 -0.46373631 0.84455008 2.5 0 0 0
1555 1 130.937500 117.454695 2.500000 -0.18242270 -0.31596539 0.93106811 2.5 0 0 0
1556 1 132.187500 119.619759 2.500000 0.00000000 -0.00000000 1.00000000 2.5 0 0 0
1557 1 133.437500 121.784822 2.500000 0.18242270 0.31596539 0.93106811 2.5 0 0 0
1558 1 134.687500 123.949886 2.500000 0.26773829 0.46373631 0.84455008 2.5 0 0 0
1559 1 135.937500 126.114949 2.500000 0.26773829 0.46373631 0.84455008 2.5 0 0 0
1560 1 137.187500 128.280013 2.500000 0.18242270 0.31596539 0.93106811 2.5 0 0 0
1561 1 65.937500 0.541266 2.500000 0.00000000 -0.67328065 0.73938702 2.5 0 0 0
1562 1 67.187500 2.706329 2.500000 -0.25210197 -0.82720813 0.50216662 2.5 0 0 0
1563 1 68.437500 4.871393 2.500000 -0.45612652 -0.79003431 0.40962714 2.5 0 0 0
1564 1 69.687500 7.036456 2.500000 -0.59033226 -0.63193078 0.50216662 2.5 0 0 0
1565 1 70.937500 9.201520 2.500000 -0.58307814 -0.33664032 0.73938702 2.5 0 0 0
1566 1 72.187500 11.366583 2.500000 -0.36484540 0.00000000 0.93106811 2.5 0 0 0
1567 1 73.437500 13.531647 2.500000 -0.09844051 0.17050396 0.98042739 2.5 0 0 0
1568 1 74.687500 15.696710 2.500000 0.09262434 0.16043006 0.98269167 2.5 0 0 0
1569 1 75.937500 17.861774 2.500000 0.19688101 0.00000000 0.98042739 2.5 0 0 0
1570 1 77.187500 20.026837 2.500000 0.18242270 -0.31596539 0.93106811 2.5 0 0 0
1571 1 78.437500 22.191901 2.500000 0.00000000 -0.67328065 0.73938702 2.5 0 0 0
1572 1 79.687500 24.356964 2.500000 -0.25210197 -0.82720813 0.50216662 2.5 0 0 0
1573 1 80.937500 26.522028 2.500000 -0.45612652 -0.79003431 0.40962714 2.5 0 0 0
1574 1 82.187500 28.687092 2.500000 -0.59033226 -0.63193078 0.50216662 2.5 0 0 0
1575 1 83.437500 30.852155 2.500000 -0.58307814 -0.33664032 0.73938702 2.5 0 0 0
1576 1 84.687500 33.017219 2.500000 -0.36484540 0.00000000 0.93106811 2.5 0 0 0
1577 1 85.937500 35.182282 2.500000 -0.09844051 0.17050396 0.98042739 2.5 0 0 0
1578 1 87.187500 37.347346 2.500000 0.09262434 0.16043006 0.98269167 2.5 0 0 0
1579 1 88.437500 39.512409 2.500000 0.19688101 -0.00000000 0.98042739 2.5 0 0 0
1580 1 89.687500 41.677473 2.500000 0.18242270 -0.31596539 0.93106811 2.5 0 0 0
1581 1 90.937500 43.842536 2.500000 0.00000000 -0.67328065 0.73938702 2.5 0 0 0
1582 1 92.187500 46.007600 2.500000 -0.25210197 -0.82720813 0.50216662 2.5 0 0 0
1583 1 93.437500 48.172663 2.500000 -0.45612652 -0.79003431 0.40962714 2.5 0 0 0
1584 1 94.687500 50.337727 2.500000 -0.59033226 -0.63193078 0.50216662 2.5 0 0 0
1585 1 95.937500 52.502790 2.500000 -0.58307814 -0.33664032 0.73938702 2.5 0 0 0
1586 1 97.187500 54.667854 2.500000 -0.36484540 0.00000000 0.93106811 2.5 0 0 0
1587 1 98.437500 56.832917 2.500000 -0.09844051 0.17050396 0.98042739 2.5 0 0 0
1588 1 99.687500 58.997981 2.500000 0.09262434 0.16043006 0.98269167 2.5 0 0 0
1589 1 100.937500 61.163044 2.500000 0.19688101 -0.00000000 0.98042739 2.5 0 0 0
1590 1 102.187500 63.328108 2.500000 0.18242270 -0.31596539 0.93106811 2.5 0 0 0
1591 1 103.437500 65.493171 2.500000 -0.00000000 -0.67328065 0.73938702 2.5 0 0 0
1592 1 104.687500 67.658235 2.500000 -0.25210197 -0.82720813 0.50216662 2.5 0 0 0
1593 1 105.937500 69.823298 2.500000 -0.45612652 -0.79003431 0.40962714 2.5 0 0 0
1594 1 107.187500 71.988362 2.500000 -0.59033226 -0.63193078 0.50216662 2.5 0 0 0
1595 1 108.437500 74.153425 2.500000 -0.58307814 -0.33664032 0.73938702 2.5 0 0 0
1596 1 109.687500 76.318489 2.500000 -0.36484540 0.00000000 0.93106811 2.5 0 0 0
1597 1 110.937500 78.483552 2.500000 -0.09844051 0.17050396 0.98042739 2.5 0 0 0
1598 1 112.187500 80.648616 2.500000 0.09262434 0.16043006 0.98269167 2.5 0 0 0
1599 1 113.437500 82.813679 2.500000 0.19688101 -0.00000000 0.98042739 2.5 0 0 0
1600 1 114.687500 84.978743 2.500000 0.18242270 -0.31596539 0.93106811 2.5 0 0 0
1601 1 115.937500 87.143806 2.500000 0.00000000 -0.67328065 0.73938702 2.5 0 0 0
1602 1 117.187500 89.308870 2.500000 -0.25210197 -0.82720813 0.50216662 2.5 0 0 0
1603 1 118.437500 91.473933 2.500000 -0.45612652 -0.79003431 0.40962714 2.5 0 0 0
1604 1 119.687500 93.638997 2.500000 -0.59033226 -0.63193078 0.50216662 2.5 0 0 0
1605 1 120.937500 95.804060 2.500000 -0.58307814 -0.33664032 0.73938702 2.5 0 0 0
1606 1 122.187500 97.969124 2.500000 -0.36484540 0.00000000 0.93106811 2.5 0 0 0
1607 1 123.437500 100.134187 2.500000 -0.09844051 0.17050396 0.98042739 2.5 0 0 0
1608 1 124.687500 102.299251 2.500000 0.09262434 0.16043006 0.98269167 2.5 0 0 0
1609 1 125.937500 104.464314 2.500000 0.19688101 -0.00000000 0.98042739 2.5 0 0 0
1610 1 127.187500 106.629378 2.500000 0.18242270 -0.31596539 0.93106811 2.5 0 0 0
1611 1 128.437500 108.794441 2.500000 0.00000000 -0.67328065 0.73938702 2.5 0 0 0
1612 1 129.687500 110.959505 2.500000 -0.25210197 -0.82720813 0.50216662 2.5 0 0 0
1613 1 130.937500 113.124568 2.500000 -0.45612652 -0.79003431 0.40962714 2.5 0 0 0
1614 1 132.187500 115.289632 2.500000 -0.59033226 -0.63193078 0.50216662 2.5 0 0 0
1615 1 133.437500 117.454695 2.500000 -0.58307814 -0.33664032 0.73938702 2.5 0 0 0
1616 1 134.687500 119.619759 2.500000 -0.36484540 -0.00000000 0.93106811 2.5 0 0 0
1617 1 135.937500 121.784822 2.500000 -0.09844051 0.17050396 0.98042739 2.5 0 0 0
1618 1 137.187500 123.949886 2.500000 0.09262434 0.16043006 0.98269167 2.5 0 0 0
1619 1 138.437500 126.114949 2.500000 0.19688101 -0.00000000 0.98042739 2.5 0 0 0
1620 1 139.687500 128.280013 2.500000 0.18242270 -0.31596539 0.93106811 2.5 0 0 0
1621 1 68.437500 0.541266 2.500000 0.00000000 -0.99744270 0.07147071 2.5 0 0 0
1622 1 69.687500 2.706329 2.500000 -0.33094272 -0.92747263 -0.17398689 2.5 0 0 0
1623 1 70.937500 4.871393 2.500000 -0.63774350 -0.75034112 -0.17398689 2.5 0 0 0
1624 1 72.187500 7.036456 2.500000 -0.86381072 -0.49872135 0.07147071 2.5 0 0 0
1625 1 73.437500 9.201520 2.500000 -0.84243424 -0.19527735 0.50216662 2.5 0 0 0
1626 1 74.687500 11.366583 2.500000 -0.53547657 -0.00000000 0.84455008 2.5 0 0 0
1627 1 75.937500 13.531647 2.500000 -0.18524868 0.00000000 0.98269167 2.5 0 0 0
1628 1 77.187500 15.696710 2.500000 0.09262434 -0.16043006 0.98269167 2.5 0 0 0
1629 1 78.437500 17.861774 2.500000 0.26773829 -0.46373631 0.84455008 2.5 0 0 0
1630 1 79.687500 20.026837 2.500000 0.25210197 -0.82720813 0.50216662 2.5 0 0 0
1631 1 80.937500 22.191901 2.500000 0.00000000 -0.99744270 0.07147071 2.5 0 0 0
1632 1 82.187500 24.356964 2.500000 -0.33094272 -0.92747263 -0.17398689 2.5 0 0 0
1633 1 83.437500 26.522028 2.500000 -0.63774350 -0.75034112 -0.17398689 2.5 0 0 0
1634 1 84.687500 28.687092 2.500000 -0.86381072 -0.49872135 0.07147071 2.5 0 0 0
1635 1 85.937500 30.852155 2.500000 -0.84243424 -0.19527735 0.50216662 2.5 0 0 0
1636 1 87.187500 33.017219 2.500000 -0.53547657 -0.00000000 0.84455008 2.5 0 0 0
1637 1 88.437500 35.182282 2.500000 -0.18524868 -0.00000000 0.98269167 2.5 0 0 0
1638 1 89.687500 37.347346 2.500000 0.09262434 -0.16043006 0.98269167 2.5 0 0 0
1639 1 90.937500 39.512409 2.500000 0.26773829 -0.46373631 0.84455008 2.5 0 0 0
1640 1 92.187500 41.677473 2.500000 0.25210197 -0.82720813 0.50216662 2.5 0 0 0
1641 1 93.437500 43.842536 2.500000 0.00000000 -0.99744270 0.07147071 2.5 0 0 0
1642 1 94.687500 46.007600 2.500000 -0.33094272 -0.92747263 -0.17398689 2.5 0 0 0
1643 1 95.937500 48.172663 2.500000 -0.63774350 -0.75034112 -0.17398689 2.5 0 0 0
1644 1 97.187500 50.337727 2.500000 -0.86381072 -0.49872135 0.07147071 2.5 0 0 0
1645 1 98.437500 52.502790 2.500000 -0.84243424 -0.19527735 0.50216662 2.5 0 0 0
1646 1 99.687500 54.667854 2.500000 -0.53547657 -0.00000000 0.84455008 2.5 0 0 0
1647 1 100.937500 56.832917 2.500000 -0.18524868 -0.00000000 0.98269167 2.5 0 0 0
1648 1 102.187500 58.997981 2.500000 0.09262434 -0.16043006 0.98269167 2.5 0 0 0
1649 1 103.437500 61.163044 2.500000 0.26773829 -0.46373631 0.84455008 2.5 0 0 0
1650 1 104.687500 63.328108 2.500000 0.25210197 -0.82720813 0.50216662 2.5 0 0 0
1651 1 105.937500 65.493171 2.500000 0.00000000 -0.99744270 0.07147071 2.5 0 0 0
1652 1 107.187500 67.658235 2.500000 -0.33094272 -0.92747263 -0.17398689 2.5 0 0 0
1653 1 108.437500 69.823298 2.500000 -0.63774350 -0.75034112 -0.17398689 2.5 0 0 0
1654 1 109.687500 71.988362 2.500000 -0.86381072 -0.49872135 0.07147071 2.5 0 0 0
1655 1 110.937500 74.153425 2.500000 -0.84243424 -0.19527735 0.50216662 2.5 0 0 0
1656 1 112.187500 76.318489 2.500000 -0.53547657 -0.00000000 0.84455008 2.5 0 0 0
1657 1 113.437500 78.483552 2.500000 -0.18524868 -0.00000000 0.98269167 2.5 0 0 0
1658 1 114.687500 80.648616 2.500000 0.09262434 -0.16043006 0.98269167 2.5 0 0 0
1659 1 115.937500 82.813679 2.500000 0.26773829 -0.46373631 0.84455008 2.5 0 0 0
1660 1 117.187500 84.978743 2.500000 0.25210197 -0.82720813 0.50216662 2.5 0 0 0
1661 1 118.437500 87.143806 2.500000 0.00000000 -0.99744270 0.07147071 2.5 0 0 0
1662 1 119.687500 89.308870 2.500000 -0.33094272 -0.92747263 -0.17398689 2.5 0 0 0
1663 1 120.937500 91.473933 2.500000 -0.63774350 -0.75034112 -0.17398689 2.5 0 0 0
1664 1 122.187500 93.638997 2.500000 -0.86381072 -0.49872135 0.07147071 2.5 0 0 0
1665 1 123.437500 95.804060 2.500000 -0.84243424 -0.19527735 0.50216662 2.5 0 0 0
1666 1 124.687500 97.969124 2.500000 -0.53547657 -0.00000000 0.84455008 2.5 0 0 0
1667 1 125.937500 100.134187 2.500000 -0.18524868 -0.00000000 0.98269167 2.5 0 0 0
1668 1 127.187500 102.299251 2.500000 0.09262434 -0.16043006 0.98269167 2.5 0 0 0
1669 1 128.437500 104.464314 2.500000 0.26773829 -0.46373631 0.84455008 2.5 0 0 0
1670 1 129.687500 106.629378 2.500000 0.25210197 -0.82720813 0.50216662 2.5 0 0 0
1671 1 130.937500 108.794441 2.500000 -0.00000000 -0.99744270 0.07147071 2.5 0 0 0
1672 1 132.187500 110.959505 2.500000 -0.33094272 -0.92747263 -0.17398689 2.5 0 0 0
1673 1 133.437500 113.124568 2.500000 -0.63774350 -0.75034112 -0.17398689 2.5 0 0 0
1674 1 134.687500 115.289632 2.500000 -0.86381072 -0.49872135 0.07147071 2.5 0 0 0
1675 1 135.937500 117.454695 2.500000 -0.84243424 -0.19527735 0.50216662 2.5 0 0 0
1676 1 137.187500 119.619759 2.500000 -0.53547657 0.00000000 0.84455008 2.5 0 0 0
1677 1 138.437500 121.784822 2.500000 -0.18524868 -0.00000000 0.98269167 2.5 0 0 0
1678 1 139.687500 123.949886 2.500000 0.09262434 -0.16043006 0.98269167 2.5 0 0 0
1679 1 140.937500 126.114949 2.500000 0.26773829 -0.46373631 0.84455008 2.5 0 0 0
1680 1 142.187500 128.280013 2.500000 0.25210197 -0.82720813 0.50216662 2.5 0 0 0
1681 1 70.937500 0.541266 2.500000 0.00000000 -0.82742021 -0.56158329 2.5 0 0 0
1682 1 72.187500 2.706329 2.500000 -0.36661923 -0.63500314 -0.67997158 2.5 0 0 0
1683 1 73.437500 4.871393 2.500000 -0.71656692 -0.41371011 -0.56158329 2.5 0 0 0
1684 1 74.687500 7.036456 2.500000 -0.96868622 -0.17713151 -0.17398689 2.5 0 0 0
1685 1 75.937500 9.201520 2.500000 -0.91225304 -0.00000000 0.40962714 2.5 0 0 0
1686 1 77.187500 11.366583 2.500000 -0.53547657 -0.00000000 0.84455008 2.5 0 0 0
1687 1 78.437500 13.531647 2.500000 -0.09844051 -0.17050396 0.98042739 2.5 0 0 0
1688 1 79.687500 15.696710 2.500000 0.26773829 -0.46373631 0.84455008 2.5 0 0 0
1689 1 80.937500 17.861774 2.500000 0.45612652 -0.79003431 0.40962714 2.5 0 0 0
1690 1 82.187500 20.026837 2.500000 0.33094272 -0.92747263 -0.17398689 2.5 0 0 0
1691 1 83.437500 22.191901 2.500000 0.00000000 -0.82742021 -0.56158329 2.5 0 0 0
1692 1 84.687500 24.356964 2.500000 -0.36661923 -0.63500314 -0.67997158 2.5 0 0 0
1693 1 85.937500 26.522028 2.500000 -0.71656692 -0.41371011 -0.56158329 2.5 0 0 0
1694 1 87.187500 28.687092 2.500000 -0.96868622 -0.17713151 -0.17398689 2.5 0 0 0
1695 1 88.437500 30.852155 2.500000 -0.91225304 0.00000000 0.40962714 2.5 0 0 0
1696 1 89.687500 33.017219 2.500000 -0.53547657 -0.00000000 0.84455008 2.5 0 0 0
1697 1 90.937500 35.182282 2.500000 -0.09844051 -0.17050396 0.98042739 2.5 0 0 0
1698 1 92.187500 37.347346 2.500000 0.26773829 -0.46373631 0.84455008 2.5 0 0 0
1699 1 93.437500 39.512409 2.500000 0.45612652 -0.79003431 0.40962714 2.5 0 0 0
1700 1 94.687500 41.677473 2.500000 0.33094272 -0.92747263 -0.17398689 2.5 0 0 0
1701 1 95.937500 43.842536 2.500000 0.00000000 -0.82742021 -0.56158329 2.5 0 0 0
1702 1 97.187500 46.007600 2.500000 -0.36661923 -0.63500314 -0.67997158 2.5 0 0 0
1703 1 98.437500 48.172663 2.500000 -0.71656692 -0.41371011 -0.56158329 2.5 0 0 0
1704 1 99.687500 50.337727 2.500000 -0.96868622 -0.17713151 -0.17398689 2.5 0 0 0
1705 1 100.937500 52.502790 2.500000 -0.91225304 0.00000000 0.40962714 2.5 0 0 0
1706 1 102.187500 54.667854 2.500000 -0.53547657 -0.00000000 0.84455008 2.5 0 0 0
1707 1 103.437500 56.832917 2.500000 -0.09844051 -0.17050396 0.98042739 2.5 0 0 0
1708 1 104.687500 58.997981 2.500000 0.26773829 -0.46373631 0.84455008 2.5 0 0 0
1709 1 105.937500 61.163044 2.500000 0.45612652 -0.79003431 0.40962714 2.5 0 0 0
1710 1 107.187500 63.328108 2.500000 0.33094272 -0.92747263 -0.17398689 2.5 0 0 0
1711 1 108.437500 65.493171 2.500000 0.00000000 -0.82742021 -0.56158329 2.5 0 0 0
1712 1 109.687500 67.658235 2.500000 -0.36661923 -0.63500314 -0.67997158 2.5 0 0 0
1713 1 110.937500 69.823298 2.500000 -0.71656692 -0.41371011 -0.56158329 2.5 0 0 0
1714 1 112.187500 71.988362 2.500000 -0.96868622 -0.17713151 -0.17398689 2.5 0 0 0
1715 1 113.437500 74.153425 2.500000 -0.91225304 0.00000000 0.40962714 2.5 0 0 0
1716 1 114.687500 76.318489 2.500000 -0.53547657 -0.00000000 0.84455008 2.5 0 0 0
1717 1 115.937500 78.483552 2.500000 -0.09844051 -0.17050396 0.98042739 2.5 0 0 0
1718 1 117.187500 80.648616 2.500000 0.26773829 -0.46373631 0.84455008 2.5 0 0 0
1719 1 118.437500 82.813679 2.500000 0.45612652 -0.79003431 0.40962714 2.5 0 0 0
1720 1 119.687500 84.978743 2.500000 0.33094272 -0.92747263 -0.17398689 2.5 0 0 0
1721 1 120.937500 87.143806 2.500000 0.00000000 -0.82742021 -0.56158329 2.5 0 0 0
1722 1 122.187500 89.308870 2.500000 -0.36661923 -0.63500314 -0.67997158 2.5 0 0 0
1723 1 123.437500 91.473933 2.500000 -0.71656692 -0.41371011 -0.56158329 2.5 0 0 0
1724 1 124.687500 93.638997 2.500000 -0.96868622 -0.17713151 -0.17398689 2.5 0 0 0
1725 1 125.937500 95.804060 2.500000 -0.91225304 0.00000000 0.40962714 2.5 0 0 0
1726 1 127.187500 97.969124 2.500000 -0.53547657 -0.00000000 0.84455008 2.5 0 0 0
1727 1 128.437500 100.134187 2.500000 -0.09844051 -0.17050396 0.98042739 2.5 0 0 0
1728 1 129.687500 102.299251 2.500000 0.26773829 -0.46373631 0.84455008 2.5 0 0 0
1729 1 130.937500 104.464314 2.500000 0.45612652 -0.79003431 0.40962714 2.5 0 0 0
1730 1 132.187500 106.629378 2.500000 0.33094272 -0.92747263 -0.17398689 2.5 0 0 0
1731 1 133.437500 108.794441 2.500000 -0.00000000 -0.82742021 -0.56158329 2.5 0 0 0
1732 1 134.687500 110.959505 2.500000 -0.36661923 -0.63500314 -0.67997158 2.5 0 0 0
1733 1 135.937500 113.124568 2.500000 -0.71656692 -0.41371011 -0.56158329 2.5 0 0 0
1734 1 137.187500 115.289632 2.500000 -0.96868622 -0.17713151 -0.17398689 2.5 0 0 0
1735 1 138.437500 117.454695 2.500000 -0.91225304 0.00000000 0.40962714 2.5 0 0 0
1736 1 139.687500 119.619759 2.500000 -0.53547657 -0.00000000 0.84455008 2.5 0 0 0
1737 1 140.937500 121.784822 2.500000 -0.09844051 -0.17050396 0.98042739 2.5 0 0 0
1738 1 142.187500 123.949886 2.500000 0.26773829 -0.46373631 0.84455008 2.5 0 0 0
1739 1 143.437500 126.114949 2.500000 0.45612652 -0.79003431 0.40962714 2.5 0 0 0
1740 1 144.687500 128.280013 2.500000 0.33094272 -0.92747263 -0.17398689 2.5 0 0 0
1741 1 73.437500 0.541266 2.500000 0.00000000 -0.43322128 -0.90128759 2.5 0 0 0
1742 1 74.687500 2.706329 2.500000 -0.37518063 -0.21661064 -0.90128759 2.5 0 0 0
1743 1 75.937500 4.871393 2.500000 -0.73323847 -0.00000000 -0.67997158 2.5 0 0 0
1744 1 77.187500 7.036456 2.500000 -0.96868622 0.17713151 -0.17398689 2.5 0 0 0
1745 1 78.437500 9.201520 2.500000 -0.84243424 0.19527735 0.50216662 2.5 0 0 0
1746 1 79.687500 11.366583 2.500000 -0.36484540 0.00000000 0.93106811 2.5 0 0 0
1747 1 80.937500 13.531647 2.500000 0.18242270 -0.31596539 0.93106811 2.5 0 0 0
1748 1 82.187500 15.696710 2.500000 0.59033226 -0.63193078 0.50216662 2.5 0 0 0
1749 1 83.437500 17.861774 2.500000 0.63774350 -0.75034112 -0.17398689 2.5 0 0 0
1750 1 84.687500 20.026837 2.500000 0.36661923 -0.63500314 -0.67997158 2.5 0 0 0
1751 1 85.937500 22.191901 2.500000 0.00000000 -0.43322128 -0.90128759 2.5 0 0 0
1752 1 87.187500 24.356964 2.500000 -0.37518063 -0.21661064 -0.90128759 2.5 0 0 0
1753 1 88.437500 26.522028 2.500000 -0.73323847 0.00000000 -0.67997158 2.5 0 0 0
1754 1 89.687500 28.687092 2.500000 -0.96868622 0.17713151 -0.17398689 2.5 0 0 0
1755 1 90.937500 30.852155 2.500000 -0.84243424 0.19527735 0.50216662 2.5 0 0 0
1756 1 92.187500 33.017219 2.500000 -0.36484540 0.00000000 0.93106811 2.5 0 0 0
1757 1 93.437500 35.182282 2.500000 0.18242270 -0.31596539 0.93106811 2.5 0 0 0
1758 1 94.687500 37.347346 2.500000 0.59033226 -0.63193078 0.50216662 2.5 0 0 0
1759 1 95.937500 39.512409 2.500000 0.63774350 -0.75034112 -0.17398689 2.5 0 0 0
1760 1 97.187500 41.677473 2.500000 0.36661923 -0.63500314 -0.67997158 2.5 0 0 0
1761 1 98.437500 43.842536 2.500000 0.00000000 -0.43322128 -0.90128759 2.5 0 0 0
1762 1 99.687500 46.007600 2.500000 -0.37518063 -0.21661064 -0.90128759 2.5 0 0 0
1763 1 100.937500 48.172663 2.500000 -0.73323847 0.00000000 -0.67997158 2.5 0 0 0
1764 1 102.187500 50.337727 2.500000 -0.96868622 0.17713151 -0.17398689 2.5 0 0 0
1765 1 103.437500 52.502790 2.500000 -0.84243424 0.19527735 0.50216662 2.5 0 0 0
1766 1 104.687500 54.667854 2.500000 -0.36484540 0.00000000 0.93106811 2.5 0 0 0
1767 1 105.937500 56.832917 2.500000 0.18242270 -0.31596539 0.93106811 2.5 0 0 0
1768 1 107.187500 58.997981 2.500000 0.59033226 -0.63193078 0.50216662 2.5 0 0 0
1769 1 108.437500 61.163044 2.500000 0.63774350 -0.75034112 -0.17398689 2.5 0 0 0
1770 1 109.687500 63.328108 2.500000 0.36661923 -0.63500314 -0.67997158 2.5 0 0 0
1771 1 110.937500 65.493171 2.500000 0.00000000 -0.43322128 -0.90128759 2.5 0 0 0
1772 1 112.187500 67.658235 2.500000 -0.37518063 -0.21661064 -0.90128759 2.5 0 0 0
1773 1 113.437500 69.823298 2.500000 -0.73323847 0.00000000 -0.67997158 2.5 0 0 0
1774 1 114.687500 71.988362 2.500000 -0.96868622 0.17713151 -0.17398689 2.5 0 0 0
1775 1 115.937500 74.153425 2.500000 -0.84243424 0.19527735 0.50216662 2.5 0 0 0
1776 1 117.187500 76.318489 2.500000 -0.36484540 0.00000000 0.93106811 2.5 0 0 0
1777 1 118.437500 78.483552 2.500000 0.18242270 -0.31596539 0.93106811 2.5 0 0 0
1778 1 119.687500 80.648616 2.500000 0.59033226 -0.63193078 0.50216662 2.5 0 0 0
1779 1 120.937500 82.813679 2.500000 0.63774350 -0.75034112 -0.17398689 2.5 0 0 0
1780 1 122.187500 84.978743 2.500000 0.36661923 -0.63500314 -0.67997158 2.5 0 0 0
1781 1 123.437500 87.143806 2.500000 0.00000000 -0.43322128 -0.90128759 2.5 0 0 0
1782 1 124.687500 89.308870 2.500000 -0.37518063 -0.21661064 -0.90128759 2.5 0 0 0
1783 1 125.937500 91.473933 2.500000 -0.73323847 0.00000000 -0.67997158 2.5 0 0 0
1784 1 127.187500 93.638997 2.500000 -0.96868622 0.17713151 -0.17398689 2.5 0 0 0
1785 1 128.437500 95.804060 2.500000 -0.84243424 0.19527735 0.50216662 2.5 0 0 0
1786 1 129.687500 97.969124 2.500000 -0.36484540 -0.00000000 0.93106811 2.5 0 0 0
1787 1 130.937500 100.134187 2.500000 0.18242270 -0.31596539 0.93106811 2.5 0 0 0
1788 1 132.187500 102.299251 2.500000 0.59033226 -0.63193078 0.50216662 2.5 0 0 0
1789 1 133.437500 104.464314 2.500000 0.63774350 -0.75034112 -0.17398689 2.5 0 0 0
1790 1 134.687500 106.629378 2.500000 0.36661923 -0.63500314 -0.67997158 2.5 0 0 0
1791 1 135.937500 108.794441 2.500000 -0.00000000 -0.43322128 -0.90128759 2.5 0 0 0
1792 1 137.187500 110.959505 2.500000 -0.37518063 -0.21661064 -0.90128759 2.5 0 0 0
1793 1 138.437500 113.124568 2.500000 -0.73323847 0.00000000 -0.67997158 2.5 0 0 0
1794 1 139.687500 115.289632 2.500000 -0.96868622 0.17713151 -0.17398689 2.5 0 0 0
1795 1 140.937500 117.454695 2.500000 -0.84243424 0.19527735 0.50216662 2.5 0 0 0
1796 1 142.187500 119.619759 2.500000 -0.36484540 0.00000000 0.93106811 2.5 0 0 0
1797 1 143.437500 121.784822 2.500000 0.18242270 -0.31596539 0.93106811 2.5 0 0 0
1798 1 144.687500 123.949886 2.500000 0.59033226 -0.63193078 0.50216662 2.5 0 0 0
1799 1 145.937500 126.114949 2.500000 0.63774350 -0.75034112 -0.17398689 2.5 0 0 0
1800 1 147.187500 128.280013 2.500000 0.36661923 -0.63500314 -0.67997158 2.5 0 0 0
1801 1 75.937500 0.541266 2.500000 0.00000000 -0.00000000 -1.00000000 2.5 0 0 0
1802 1 77.187500 2.706329 2.500000 -0.37518063 0.21661064 -0.90128759 2.5 0 0 0
1803 1 78.437500 4.871393 2.500000 -0.71656692 0.41371011 -0.56158329 2.5 0 0 0
1804 1 79.687500 7.036456 2.500000 -0.86381072 0.49872135 0.07147071 2.5 0 0 0
1805 1 80.937500 9.201520 2.500000 -0.58307814 0.33664032 0.73938702 2.5 0 0 0
1806 1 82.187500 11.366583 2.500000 0.00000000 -0.00000000 1.00000000 2.5 0 0 0
1807 1 83.437500 13.531647 2.500000 0.58307814 -0.33664032 0.73938702 2.5 0 0 0
1808 1 84.687500 15.696710 2.500000 0.86381072 -0.49872135 0.07147071 2.5 0 0 0
1809 1 85.937500 17.861774 2.500000 0.71656692 -0.41371011 -0.56158329 2.5 0 0 0
1810 1 87.187500 20.026837 2.500000 0.37518063 -0.21661064 -0.90128759 2.5 0 0 0
1811 1 88.437500 22.191901 2.500000 0.00000000 0.00000000 -1.00000000 2.5 0 0 0
1812 1 89.687500 24.356964 2.500000 -0.37518063 0.21661064 -0.90128759 2.5 0 0 0
1813 1 90.937500 26.522028 2.500000 -0.71656692 0.41371011 -0.56158329 2.5 0 0 0
1814 1 92.187500 28.687092 2.500000 -0.86381072 0.49872135 0.07147071 2.5 0 0 0
1815 1 93.437500 30.852155 2.500000 -0.58307814 0.33664032 0.73938702 2.5 0 0 0
1816 1 94.687500 33.017219 2.500000 0.00000000 -0.00000000 1.00000000 2.5 0 0 0
1817 1 95.937500 35.182282 2.500000 0.58307814 -0.33664032 0.73938702 2.5 0 0 0
1818 1 97.187500 37.347346 2.500000 0.86381072 -0.49872135 0.07147071 2.5 0 0 0
1819 1 98.437500 39.512409 2.500000 0.71656692 -0.41371011 -0.56158329 2.5 0 0 0
1820 1 99.687500 41.677473 2.500000 0.37518063 -0.21661064 -0.90128759 2.5 0 0 0
1821 1 100.937500 43.842536 2.500000 0.00000000 0.00000000 -1.00000000 2.5 0 0 0
1822 1 102.187500 46.007600 2.500000 -0.37518063 0.21661064 -0.90128759 2.5 0 0 0
1823 1 103.437500 48.172663 2.500000 -0.71656692 0.41371011 -0.56158329 2.5 0 0 0
1824 1 104.687500 50.337727 2.500000 -0.86381072 0.49872135 0.07147071 2.5 0 0 0
1825 1 105.937500 52.502790 2.500000 -0.58307814 0.33664032 0.73938702 2.5 0 0 0
1826 1 107.187500 54.667854 2.500000 0.00000000 -0.00000000 1.00000000 2.5 0 0 0
1827 1 108.437500 56.832917 2.500000 0.58307814 -0.33664032 0.73938702 2.5 0 0 0
1828 1 109.687500 58.997981 2.500000 0.86381072 -0.49872135 0.07147071 2.5 0 0 0
1829 1 110.937500 61.163044 2.500000 0.71656692 -0.41371011 -0.56158329 2.5 0 0 0
1830 1 112.187500 63.328108 2.500000 0.37518063 -0.21661064 -0.90128759 2.5 0 0 0
1831 1 113.437500 65.493171 2.500000 0.00000000 0.00000000 -1.00000000 2.5 0 0 0
1832 1 114.687500 67.658235 2.500000 -0.37518063 0.21661064 -0.90128759 2.5 0 0 0
1833 1 115.937500 69.823298 2.500000 -0.71656692 0.41371011 -0.56158329 2.5 0 0 0
1834 1 117.187500 71.988362 2.500000 -0.86381072 0.49872135 0.07147071 2.5 0 0 0
1835 1 118.437500 74.153425 2.500000 -0.58307814 0.33664032 0.73938702 2.5 0 0 0
1836 1 119.687500 76.318489 2.500000 -0.00000000 -0.00000000 1.00000000 2.5 0 0 0
1837 1 120.937500 78.483552 2.500000 0.58307814 -0.33664032 0.73938702 2.5 0 0 0
1838 1 122.187500 80.648616 2.500000 0.86381072 -0.49872135 0.07147071 2.5 0 0 0
1839 1 123.437500 82.813679 2.500000 0.71656692 -0.41371011 -0.56158329 2.5 0 0 0
1840 1 124.687500 84.978743 2.500000 0.37518063 -0.21661064 -0.90128759 2.5 0 0 0
1841 1 125.937500 87.143806 2.500000 -0.00000000 0.00000000 -1.00000000 2.5 0 0 0
1842 1 127.187500 89.308870 2.500000 -0.37518063 0.21661064 -0.90128759 2.5 0 0 0
1843 1 128.437500 91.473933 2.500000 -0.71656692 0.41371011 -0.56158329 2.5 0 0 0
1844 1 129.687500 93.638997 2.500000 -0.86381072 0.49872135 0.07147071 2.5 0 0 0
1845 1 130.937500 95.804060 2.500000 -0.58307814 0.33664032 0.73938702 2.5 0 0 0
1846 1 132.187500 97.969124 2.500000 -0.00000000 -0.00000000 1.00000000 2.5 0 0 0
1847 1 133.437500 100.134187 2.500000 0.58307814 -0.33664032 0.73938702 2.5 0 0 0
1848 1 134.687500 102.299251 2.500000 0.86381072 -0.49872135 0.07147071 2.5 0 0 0
1849 1 135.937500 104.464314 2.500000 0.71656692 -0.41371011 -0.56158329 2.5 0 0 0
1850 1 137.187500 106.629378 2.500000 0.37518063 -0.21661064 -0.90128759 2.5 0 0 0
1851 1 138.437500 108.794441 2.500000 -0.00000000 0.00000000 -1.00000000 2.5 0 0 0
1852 1 139.687500 110.959505 2.500000 -0.37518063 0.21661064 -0.90128759 2.5 0 0 0
1853 1 140.937500 113.124568 2.500000 -0.71656692 0.41371011 -0.56158329 2.5 0 0 0
1854 1 142.187500 115.289632 2.500000 -0.86381072 0.49872135 0.07147071 2.5 0 0 0
1855 1 143.437500 117.454695 2.500000 -0.58307814 0.33664032 0.73938702 2.5 0 0 0
1856 1 144.687500 119.619759 2.500000 0.00000000 0.00000000 1.00000000 2.5 0 0 0
1857 1 145.937500 121.784822 2.500000 0.58307814 -0.33664032 0.73938702 2.5 0 0 0
1858 1 147.187500 123.949886 2.500000 0.86381072 -0.49872135 0.07147071 2.5 0 0 0
1859 1 148.437500 126.114949 2.500000 0.71656692 -0.41371011 -0.56158329 2.5 0 0 0
1860 1 149.687500 128.280013 2.500000 0.37518063 -0.21661064 -0.90128759 2.5 0 0 0
1861 1 78.437500 0.541266 2.500000 0.00000000 0.43322128 -0.90128759 2.5 0 0 0
1862 1 79.687500 2.706329 2.500000 -0.36661923 0.63500314 -0.67997158 2.5 0 0 0
1863 1 80.937500 4.871393 2.500000 -0.63774350 0.75034112 -0.17398689 2.5 0 0 0
1864 1 82.187500 7.036456 2.500000 -0.59033226 0.63193078 0.50216662 2.5 0 0 0
1865 1 83.437500 9.201520 2.500000 -0.18242270 0.31596539 0.93106811 2.5 0 0 0
1866 1 84.687500 11.366583 2.500000 0.36484540 0.00000000 0.93106811 2.5 0 0 0
1867 1 85.937500 13.531647 2.500000 0.84243424 -0.19527735 0.50216662 2.5 0 0 0
1868 1 87.187500 15.696710 2.500000 0.96868622 -0.17713151 -0.17398689 2.5 0 0 0
1869 1 88.437500 17.861774 2.500000 0.73323847 0.00000000 -0.67997158 2.5 0 0 0
1870 1 89.687500 20.026837 2.500000 0.37518063 0.21661064 -0.90128759 2.5 0 0 0
1871 1 90.937500 22.191901 2.500000 0.00000000 0.43322128 -0.90128759 2.5 0 0 0
1872 1 92.187500 24.356964 2.500000 -0.36661923 0.63500314 -0.67997158 2.5 0 0 0
1873 1 93.437500 26.522028 2.500000 -0.63774350 0.75034112 -0.17398689 2.5 0 0 0
1874 1 94.687500 28.687092 2.500000 -0.59033226 0.63193078 0.50216662 2.5 0 0 0
1875 1 95.937500 30.852155 2.500000 -0.18242270 0.31596539 0.93106811 2.5 0 0 0
1876 1 97.187500 33.017219 2.500000 0.36484540 0.00000000 0.93106811 2.5 0 0 0
1877 1 98.437500 35.182282 2.500000 0.84243424 -0.19527735 0.50216662 2.5 0 0 0
1878 1 99.687500 37.347346 2.500000 0.96868622 -0.17713151 -0.17398689 2.5 0 0 0
1879 1 100.937500 39.512409 2.500000 0.73323847 0.00000000 -0.67997158 2.5 0 0 0
1880 1 102.187500 41.677473 2.500000 0.37518063 0.21661064 -0.90128759 2.5 0 0 0
1881 1 103.437500 43.842536 2.500000 0.00000000 0.43322128 -0.90128759 2.5 0 0 0
1882 1 104.687500 46.007600 2.500000 -0.36661923 0.63500314 -0.67997158 2.5 0 0 0
1883 1 105.937500 48.172663 2.500000 -0.63774350 0.75034112 -0.17398689 2.5 0 0 0
1884 1 107.187500 50.337727 2.500000 -0.59033226 0.63193078 0.50216662 2.5 0 0 0
1885 1 108.437500 52.502790 2.500000 -0.18242270 0.31596539 0.93106811 2.5 0 0 0
1886 1 109.687500 54.667854 2.500000 0.36484540 0.00000000 0.93106811 2.5 0 0 0
1887 1 110.937500 56.832917 2.500000 0.84243424 -0.19527735 0.50216662 2.5 0 0 0
1888 1 112.187500 58.997981 2.500000 0.96868622 -0.17713151 -0.17398689 2.5 0 0 0
1889 1 113.437500 61.163044 2.500000 0.73323847 0.00000000 -0.67997158 2.5 0 0 0
1890 1 114.687500 63.328108 2.500000 0.37518063 0.21661064 -0.90128759 2.5 0 0 0
1891 1 115.937500 65.493171 2.500000 0.00000000 0.43322128 -0.90128759 2.5 0 0 0
1892 1 117.187500 67.658235 2.500000 -0.36661923 0.63500314 -0.67997158 2.5 0 0 0
1893 1 118.437500 69.823298 2.500000 -0.63774350 0.75034112 -0.17398689 2.5 0 0 0
1894 1 119.687500 71.988362 2.500000 -0.59033226 0.63193078 0.50216662 2.5 0 0 0
1895 1 120.937500 74.153425 2.500000 -0.18242270 0.31596539 0.93106811 2.5 0 0 0
1896 1 122.187500 76.318489 2.500000 0.36484540 0.00000000 0.93106811 2.5 0 0 0
1897 1 123.437500 78.483552 2.500000 0.84243424 -0.19527735 0.50216662 2.5 0 0 0
1898 1 124.687500 80.648616 2.500000 0.96868622 -0.17713151 -0.17398689 2.5 0 0 0
1899 1 125.937500 82.813679 2.500000 0.73323847 0.00000000 -0.67997158 2.5 0 0 0
1900 1 127.187500 84.978743 2.500000 0.37518063 0.21661064 -0.90128759 2.5 0 0 0
1901 1 128.437500 87.143806 2.500000 0.00000000 0.43322128 -0.90128759 2.5 0 0 0
1902 1 129.687500 89.308870 2.500000 -0.36661923 0.63500314 -0.67997158 2.5 0 0 0
1903 1 130.937500 91.473933 2.500000 -0.63774350 0.75034112 -0.17398689 2.5 0 0 0
1904 1 132.187500 93.638997 2.500000 -0.59033226 0.63193078 0.50216662 2.5 0 0 0
1905 1 133.437500 95.804060 2.500000 -0.18242270 0.31596539 0.93106811 2.5 0 0 0
1906 1 134.687500 97.969124 2.500000 0.36484540 -0.00000000 0.93106811 2.5 0 0 0
1907 1 135.937500 100.134187 2.500000 0.84243424 -0.19527735 0.50216662 2.5 0 0 0
1908 1 137.187500 102.299251 2.500000 0.96868622 -0.17713151 -0.17398689 2.5 0 0 0
1909 1 138.437500 104.464314 2.500000 0.73323847 0.00000000 -0.67997158 2.5 0 0 0
1910 1 139.687500 106.629378 2.500000 0.37518063 0.21661064 -0.90128759 2.5 0 0 0
1911 1 140.937500 108.794441 2.500000 -0.00000000 0.43322128 -0.90128759 2.5 0 0 0
1912 1 142.187500 110.959505 2.500000 -0.36661923 0.63500314 -0.67997158 2.5 0 0 0
1913 1 143.437500 113.124568 2.500000 -0.63774350 0.75034112 -0.17398689 2.5 0 0 0
1914 1 144.687500 115.289632 2.500000 -0.59033226 0.63193078 0.50216662 2.5 0 0 0
1915 1 145.937500 117.454695 2.500000 -0.18242270 0.31596539 0.93106811 2.5 0 0 0
1916 1 147.187500 119.619759 2.500000 0.36484540 -0.00000000 0.93106811 2.5 0 0 0
1917 1 148.437500 121.784822 2.500000 0.84243424 -0.19527735 0.50216662 2.5 0 0 0
1918 1 149.687500 123.949886 2.500000 0.96868622 -0.17713151 -0.17398689 2.5 0 0 0
1919 1 150.937500 126.114949 2.500000 0.73323847 0.00000000 -0.67997158 2.5 0 0 0
1920 1 152.187500 128.280013 2.500000 0.37518063 0.21661064 -0.90128759 2.5 0 0 0
1921 1 80.937500 0.541266 2.500000 0.00000000 0.82742021 -0.56158329 2.5 0 0 0
1922 1 82.187500 2.706329 2.500000 -0.33094272 0.92747263 -0.17398689 2.5 0 0 0
1923 1 83.437500 4.871393 2.500000 -0.45612652 0.79003431 0.40962714 2.5 0 0 0
1924 1 84.687500 7.036456 2.500000 -0.26773829 0.46373631 0.84455008 2.5 0 0 0
1925 1 85.937500 9.201520 2.500000 0.09844051 0.17050396 0.98042739 2.5 0 0 0
1926 1 87.187500 11.366583 2.500000 0.53547657 -0.00000000 0.84455008 2.5 0 0 0
1927 1 88.437500 13.531647 2.500000 0.91225304 0.00000000 0.40962714 2.5 0 0 0
1928 1 89.687500 15.696710 2.500000 0.96868622 0.17713151 -0.17398689 2.5 0 0 0
1929 1 90.937500 17.861774 2.500000 0.71656692 0.41371011 -0.56158329 2.5 0 0 0
1930 1 92.187500 20.026837 2.500000 0.36661923 0.63500314 -0.67997158 2.5 0 0 0
1931 1 93.437500 22.191901 2.500000 0.00000000 0.82742021 -0.56158329 2.5 0 0 0
1932 1 94.687500 24.356964 2.500000 -0.33094272 0.92747263 -0.17398689 2.5 0 0 0
1933 1 95.937500 26.522028 2.500000 -0.45612652 0.79003431 0.40962714 2.5 0 0 0
1934 1 97.187500 28.687092 2.500000 -0.26773829 0.46373631 0.84455008 2.5 0 0 0
1935 1 98.437500 30.852155 2.500000 0.09844051 0.17050396 0.98042739 2.5 0 0 0
1936 1 99.687500 33.017219 2.500000 0.53547657 -0.00000000 0.84455008 2.5 0 0 0
1937 1 100.937500 35.182282 2.500000 0.91225304 0.00000000 0.40962714 2.5 0 0 0
1938 1 102.187500 37.347346 2.500000 0.96868622 0.17713151 -0.17398689 2.5 0 0 0
1939 1 103.437500 39.512409 2.500000 0.71656692 0.41371011 -0.56158329 2.5 0 0 0
1940 1 104.687500 41.677473 2.500000 0.36661923 0.63500314 -0.67997158 2.5 0 0 0
1941 1 105.937500 43.842536 2.500000 0.00000000 0.82742021 -0.56158329 2.5 0 0 0
1942 1 107.187500 46.007600 2.500000 -0.33094272 0.92747263 -0.17398689 2.5 0 0 0
1943 1 108.437500 48.172663 2.500000 -0.45612652 0.79003431 0.40962714 2.5 0 0 0
1944 1 109.687500 50.337727 2.500000 -0.26773829 0.46373631 0.84455008 2.5 0 0 0
1945 1 110.937500 52.502790 2.500000 0.09844051 0.17050396 0.98042739 2.5 0 0 0
1946 1 112.187500 54.667854 2.500000 0.53547657 -0.00000000 0.84455008 2.5 0 0 0
1947 1 113.437500 56.832917 2.500000 0.91225304 0.00000000 0.40962714 2.5 0 0 0
1948 1 114.687500 58.997981 2.500000 0.96868622 0.17713151 -0.17398689 2.5 0 0 0
1949 1 115.937500 61.163044 2.500000 0.71656692 0.41371011 -0.56158329 2.5 0 0 0
1950 1 117.187500 63.328108 2.500000 0.36661923 0.63500314 -0.67997158 2.5 0 0 0
1951 1 118.437500 65.493171 2.500000 0.00000000 0.82742021 -0.56158329 2.5 0 0 0
1952 1 119.687500 67.658235 2.500000 -0.33094272 0.92747263 -0.17398689 2.5 0 0 0
1953 1 120.937500 69.823298 2.500000 -0.45612652 0.79003431 0.40962714 2.5 0 0 0
1954 1 122.187500 71.988362 2.500000 -0.26773829 0.46373631 0.84455008 2.5 0 0 0
1955 1 123.437500 74.153425 2.500000 0.09844051 0.17050396 0.98042739 2.5 0 0 0
1956 1 124.687500 76.318489 2.500000 0.53547657 -0.00000000 0.84455008 2.5 0 0 0
1957 1 125.937500 78.483552 2.500000 0.91225304 0.00000000 0.40962714 2.5 0 0 0
1958 1 127.187500 80.648616 2.500000 0.96868622 0.17713151 -0.17398689 2.5 0 0 0
1959 1 128.437500 82.813679 2.500000 0.71656692 0.41371011 -0.56158329 2.5 0 0 0
1960 1 129.687500 84.978743 2.500000 0.36661923 0.63500314 -0.67997158 2.5 0 0 0
1961 1 130.937500 87.143806 2.500000 0.00000000 0.82742021 -0.56158329 2.5 0 0 0
1962 1 132.187500 89.308870 2.500000 -0.33094272 0.92747263 -0.17398689 2.5 0 0 0
1963 1 133.437500 91.473933 2.500000 -0.45612652 0.79003431 0.40962714 2.5 0 0 0
1964 1 134.687500 93.638997 2.500000 -0.26773829 0.46373631 0.84455008 2.5 0 0 0
1965 1 135.937500 95.804060 2.500000 0.09844051 0.17050396 0.98042739 2.5 0 0 0
1966 1 137.187500 97.969124 2.500000 0.53547657 -0.00000000 0.84455008 2.5 0 0 0
1967 1 138.437500 100.134187 2.500000 0.91225304 0.00000000 0.40962714 2.5 0 0 0
1968 1 139.687500 102.299251 2.500000 0.96868622 0.17713151 -0.17398689 2.5 0 0 0
1969 1 140.937500 104.464314 2.500000 0.71656692 0.41371011 -0.56158329 2.5 0 0 0
1970 1 142.187500 106.629378 2.500000 0.36661923 0.63500314 -0.67997158 2.5 0 0 0
1971 1 143.437500 108.794441 2.500000 -0.00000000 0.82742021 -0.56158329 2.5 0 0 0
1972 1 144.687500 110.959505 2.500000 -0.33094272 0.92747263 -0.17398689 2.5 0 0 0
1973 1 145.937500 113.124568 2.500000 -0.45612652 0.79003431 0.40962714 2.5 0 0 0
1974 1 147.187500 115.289632 2.500000 -0.26773829 0.46373631 0.84455008 2.5 0 0 0
1975 1 148.437500 117.454695 2.500000 0.09844051 0.17050396 0.98042739 2.5 0 0 0
1976 1 149.687500 119.619759 2.500000 0.53547657 -0.00000000 0.84455008 2.5 0 0 0
1977 1 150.937500 121.784822 2.500000 0.91225304 -0.00000000 0.40962714 2.5 0 0 0
1978 1 152.187500 123.949886 2.500000 0.96868622 0.17713151 -0.17398689 2.5 0 0 0
1979 1 153.437500 126.114949 2.500000 0.71656692 0.41371011 -0.56158329 2.5 0 0 0
1980 1 154.687500 128.280013 2.500000 0.36661923 0.63500314 -0.67997158 2.5 0 0 0
1981 1 83.437500 0.541266 2.500000 0.00000000 0.99744270 0.07147071 2.5 0 0 0
1982 1 84.687500 2.706329 2.500000 -0.25210197 0.82720813 0.50216662 2.5 0 0 0
1983 1 85.937500 4.871393 2.500000 -0.26773829 0.46373631 0.84455008 2.5 0 0 0
1984 1 87.187500 7.036456 2.500000 -0.09262434 0.16043006 0.98269167 2.5 0 0 0
1985 1 88.437500 9.201520 2.500000 0.18524868 -0.00000000 0.98269167 2.5 0 0 0
1986 1 89.687500 11.366583 2.500000 0.53547657 -0.00000000 0.84455008 2.5 0 0 0
1987 1 90.937500 13.531647 2.500000 0.84243424 0.19527735 0.50216662 2.5 0 0 0
1988 1 92.187500 15.696710 2.500000 0.86381072 0.49872135 0.07147071 2.5 0 0 0
1989 1 93.437500 17.861774 2.500000 0.63774350 0.75034112 -0.17398689 2.5 0 0 0
1990 1 94.687500 20.026837 2.500000 0.33094272 0.92747263 -0.17398689 2.5 0 0 0
1991 1 95.937500 22.191901 2.500000 0.00000000 0.99744270 0.07147071 2.5 0 0 0
1992 1 97.187500 24.356964 2.500000 -0.25210197 0.82720813 0.50216662 2.5 0 0 0
1993 1 98.437500 26.522028 2.500000 -0.26773829 0.46373631 0.84455008 2.5 0 0 0
1994 1 99.687500 28.687092 2.500000 -0.09262434 0.16043006 0.98269167 2.5 0 0 0
1995 1 100.937500 30.852155 2.500000 0.18524868 -0.00000000 0.98269167 2.5 0 0 0
1996 1 102.187500 33.017219 2.500000 0.53547657 -0.00000000 0.84455008 2.5 0 0 0
1997 1 103.437500 35.182282 2.500000 0.84243424 0.19527735 0.50216662 2.5 0 0 0
1998 1 104.687500 37.347346 2.500000 0.86381072 0.49872135 0.07147071 2.5 0 0 0
1999 1 105.937500 39.512409 2.500000 0.63774350 0.75034112 -0.17398689 2.5 0 0 0
2000 1 107.187500 41.677473 2.500000 0.33094272 0.92747263 -0.17398689 2.5 0 0 0
2001 1 108.437500 43.842536 2.500000 0.00000000 0.99744270 0.07147071 2.5 0 0 0
2002 1 109.687500 46.007600 2.500000 -0.25210197 0.82720813 0.50216662 2.5 0 0 0
2003 1 110.937500 48.172663 2.500000 -0.26773829 0.46373631 0.84455008 2.5 0 0 0
2004 1 112.187500 50.337727 2.500000 -0.09262434 0.16043006 0.98269167 2.5 0 0 0
2005 1 113.437500 52.502790 2.500000 0.18524868 -0.00000000 0.98269167 2.5 0 0 0
2006 1 114.687500 54.667854 2.500000 0.53547657 0.00000000 0.84455008 2.5 0 0 0
2007 1 115.937500 56.832917 2.500000 0.84243424 0.19527735 0.50216662 2.5 0 0 0
2008 1 117.187500 58.997981 2.500000 0.86381072 0.49872135 0.07147071 2.5 0 0 0
2009 1 118.437500 61.163044 2.500000 0.63774350 0.75034112 -0.17398689 2.5 0 0 0
2010 1 119.687500 63.328108 2.500000 0.33094272 0.92747263 -0.17398689 2.5 0 0 0
2011 1 120.937500 65.493171 2.500000 0.00000000 0.99744270 0.07147071 2.5 0 0 0
2012 1 122.187500 67.658235 2.500000 -0.25210197 0.82720813 0.50216662 2.5 0 0 0
2013 1 123.437500 69.823298 2.500000 -0.26773829 0.46373631 0.84455008 2.5 0 0 0
2014 1 124.687500 71.988362 2.500000 -0.09262434 0.16043006 0.98269167 2.5 0 0 0
2015 1 125.937500 74.153425 2.500000 0.18524868 -0.00000000 0.98269167 2.5 0 0 0
2016 1 127.187500 76.318489 2.500000 0.53547657 -0.00000000 0.84455008 2.5 0 0 0
2017 1 128.437500 78.483552 2.500000 0.84243424 0.19527735 0.50216662 2.5 0 0 0
2018 1 129.687500 80.648616 2.500000 0.86381072 0.49872135 0.07147071 2.5 0 0 0
2019 1 130.937500 82.813679 2.500000 0.63774350 0.75034112 -0.17398689 2.5 0 0 0
2020 1 132.187500 84.978743 2.500000 0.33094272 0.92747263 -0.17398689 2.5 0 0 0
2021 1 133.437500 87.143806 2.500000 0.00000000 0.99744270 0.07147071 2.5 0 0 0
2022 1 134.687500 89.308870 2.500000 -0.25210197 0.82720813 0.50216662 2.5 0 0 0
2023 1 135.937500 91.473933 2.500000 -0.26773829 0.46373631 0.84455008 2.5 0 0 0
2024 1 137.187500 93.638997 2.500000 -0.09262434 0.16043006 0.98269167 2.5 0 0 0
2025 1 138.437500 95.804060 2.500000 0.18524868 -0.00000000 0.98269167 2.5 0 0 0
2026 1 139.687500 97.969124 2.500000 0.53547657 0.00000000 0.84455008 2.5 0 0 0
2027 1 140.937500 100.134187 2.500000 0.84243424 0.19527735 0.50216662 2.5 0 0 0
2028 1 142.187500 102.299251 2.500000 0.86381072 0.49872135 0.07147071 2.5 0 0 0
2029 1 143.437500 104.464314 2.500000 0.63774350 0.75034112 -0.17398689 2.5 0 0 0
2030 1 144.687500 106.629378 2.500000 0.33094272 0.92747263 -0.17398689 2.5 0 0 0
2031 1 145.937500 108.794441 2.500000 -0.00000000 0.99744270 0.07147071 2.5 0 0 0
2032 1 147.187500 110.959505 2.500000 -0.25210197 0.82720813 0.50216662 2.5 0 0 0
2033 1 148.437500 113.124568 2.500000 -0.26773829 0.46373631 0.84455008 2.5 0 0 0
2034 1 149.687500 115.289632 2.500000 -0.09262434 0.16043006 0.98269167 2.5 0 0 0
2035 1 150.937500 117.454695 2.500000 0.18524868 0.00000000 0.98269167 2.5 0 0 0
2036 1 152.187500 119.619759 2.500000 0.53547657 -0.00000000 0.84455008 2.5 0 0 0
2037 1 153.437500 121.784822 2.500000 0.84243424 0.19527735 0.50216662 2.5 0 0 0
2038 1 154.687500 123.949886 2.500000 0.86381072 0.49872135 0.07147071 2.5 0 0 0
2039 1 155.937500 126.114949 2.500000 0.63774350 0.75034112 -0.17398689 2.5 0 0 0
2040 1 157.187500 128.280013 2.500000 0.33094272 0.92747263 -0.17398689 2.5 0 0 0
2041 1 85.937500 0.541266 2.500000 0.00000000 0.67328065 0.73938702 2.5 0 0 0
2042 1 87.187500 2.706329 2.500000 -0.18242270 0.31596539 0.93106811 2.5 0 0 0
2043 1 88.437500 4.871393 2.500000 -0.19688101 -0.00000000 0.98042739 2.5 0 0 0
2044 1 89.687500 7.036456 2.500000 -0.09262434 -0.16043006 0.98269167 2.5 0 0 0
2045 1 90.937500 9.201520 2.500000 0.09844051 -0.17050396 0.98042739 2.5 0 0 0
2046 1 92.187500 11.366583 2.500000 0.36484540 0.00000000 0.93106811 2.5 0 0 0
2047 1 93.437500 13.531647 2.500000 0.58307814 0.33664032 0.73938702 2.5 0 0 0
2048 1 94.687500 15.696710 2.500000 0.59033226 0.63193078 0.50216662 2.5 0 0 0
2049 1 95.937500 17.861774 2.500000 0.45612652 0.79003431 0.40962714 2.5 0 0 0
2050 1 97.187500 20.026837 2.500000 0.25210197 0.82720813 0.50216662 2.5 0 0 0
2051 1 98.437500 22.191901 2.500000 0.00000000 0.67328065 0.73938702 2.5 0 0 0
2052 1 99.687500 24.356964 2.500000 -0.18242270 0.31596539 0.93106811 2.5 0 0 0
2053 1 100.937500 26.522028 2.500000 -0.19688101 -0.00000000 0.98042739 2.5 0 0 0
2054 1 102.187500 28.687092 2.500000 -0.09262434 -0.16043006 0.98269167 2.5 0 0 0
2055 1 103.437500 30.852155 2.500000 0.09844051 -0.17050396 0.98042739 2.5 0 0 0
2056 1 104.687500 33.017219 2.500000 0.36484540 0.00000000 0.93106811 2.5 0 0 0
2057 1 105.937500 35.182282 2.500000 0.58307814 0.33664032 0.73938702 2.5 0 0 0
2058 1 107.187500 37.347346 2.500000 0.59033226 0.63193078 0.50216662 2.5 0 0 0
2059 1 108.437500 39.512409 2.500000 0.45612652 0.79003431 0.40962714 2.5 0 0 0
2060 1 109.687500 41.677473 2.500000 0.25210197 0.82720813 0.50216662 2.5 0 0 0
2061 1 110.937500 43.842536 2.500000 0.00000000 0.67328065 0.73938702 2.5 0 0 0
2062 1 112.187500 46.007600 2.500000 -0.18242270 0.31596539 0.93106811 2.5 0 0 0
2063 1 113.437500 48.172663 2.500000 -0.19688101 -0.00000000 0.98042739 2.5 0 0 0
2064 1 114.687500 50.337727 2.500000 -0.09262434 -0.16043006 0.98269167 2.5 0 0 0
2065 1 115.937500 52.502790 2.500000 0.09844051 -0.17050396 0.98042739 2.5 0 0 0
2066 1 117.187500 54.667854 2.500000 0.36484540 0.00000000 0.93106811 2.5 0 0 0
2067 1 118.437500 56.832917 2.500000 0.58307814 0.33664032 0.73938702 2.5 0 0 0
2068 1 119.687500 58.997981 2.500000 0.59033226 0.63193078 0.50216662 2.5 0 0 0
2069 1 120.937500 61.163044 2.500000 0.45612652 0.79003431 0.40962714 2.5 0 0 0
2070 1 122.187500 63.328108 2.500000 0.25210197 0.82720813 0.50216662 2.5 0 0 0
2071 1 123.437500 65.493171 2.500000 -0.00000000 0.67328065 0.73938702 2.5 0 0 0
2072 1 124.687500 67.658235 2.500000 -0.18242270 0.31596539 0.93106811 2.5 0 0 0
2073 1 125.937500 69.823298 2.500000 -0.19688101 -0.00000000 0.98042739 2.5 0 0 0
2074 1 127.187500 71.988362 2.500000 -0.09262434 -0.16043006 0.98269167 2.5 0 0 0
2075 1 128.437500 74.153425 2.500000 0.09844051 -0.17050396 0.98042739 2.5 0 0 0
2076 1 129.687500 76.318489 2.500000 0.36484540 -0.00000000 0.93106811 2.5 0 0 0
2077 1 130.937500 78.483552 2.500000 0.58307814 0.33664032 0.73938702 2.5 0 0 0
2078 1 132.187500 80.648616 2.500000 0.59033226 0.63193078 0.50216662 2.5 0 0 0
2079 1 133.437500 82.813679 2.500000 0.45612652 0.79003431 0.40962714 2.5 0 0 0
2080 1 134.687500 84.978743 2.500000 0.25210197 0.82720813 0.50216662 2.5 0 0 0
2081 1 135.937500 87.143806 2.500000 0.00000000 0.67328065 0.73938702 2.5 0 0 0
2082 1 137.187500 89.308870 2.500000 -0.18242270 0.31596539 0.93106811 2.5 0 0 0
2083 1 138.437500 91.473933 2.500000 -0.19688101 -0.00000000 0.98042739 2.5 0 0 0
2084 1 139.687500 93.638997 2.500000 -0.09262434 -0.16043006 0.98269167 2.5 0 0 0
2085 1 140.937500 95.804060 2.500000 0.09844051 -0.17050396 0.98042739 2.5 0 0 0
2086 1 142.187500 97.969124 2.500000 0.36484540 0.00000000 0.93106811 2.5 0 0 0
2087 1 143.437500 100.134187 2.500000 0.58307814 0.33664032 0.73938702 2.5 0 0 0
2088 1 144.687500 102.299251 2.500000 0.59033226 0.63193078 0.50216662 2.5 0 0 0
2089 1 145.937500 104.464314 2.500000 0.45612652 0.79003431 0.40962714 2.5 0 0 0
2090 1 147.187500 106.629378 2.500000 0.25210197 0.82720813 0.50216662 2.5 0 0 0
2091 1 148.437500 108.794441 2.500000 0.00000000 0.67328065 0.73938702 2.5 0 0 0
2092 1 149.687500 110.959505 2.500000 -0.18242270 0.31596539 0.93106811 2.5 0 0 0
2093 1 150.937500 113.124568 2.500000 -0.19688101 0.00000000 0.98042739 2.5 0 0 0
2094 1 152.187500 115.289632 2.500000 -0.09262434 -0.16043006 0.98269167 2.5 0 0 0
2095 1 153.437500 117.454695 2.500000 0.09844051 -0.17050396 0.98042739 2.5 0 0 0
2096 1 154.687500 119.619759 2.500000 0.36484540 -0.00000000 0.93106811 2.5 0 0 0
2097 1 155.937500 121.784822 2.500000 0.58307814 0.33664032 0.73938702 2.5 0 0 0
2098 1 157.187500 123.949886 2.500000 0.59033226 0.63193078 0.50216662 2.5 0 0 0
2099 1 158.437500 126.114949 2.500000 0.45612652 0.79003431 0.40962714 2.5 0 0 0
2100 1 159.687500 128.280013 2.500000 0.25210197 0.82720813 0.50216662 2.5 0 0 0
2101 1 88.437500 0.541266 2.500000 0.00000000 -0.00000000 1.00000000 2.5 0 0 0
2102 1 89.687500 2.706329 2.500000 -0.18242270 -0.31596539 0.93106811 2.5 0 0 0
2103 1 90.937500 4.871393 2.500000 -0.26773829 -0.46373631 0.84455008 2.5 0 0 0
2104 1 92.187500 7.036456 2.500000 -0.26773829 -0.46373631 0.84455008 2.5 0 0 0
2105 1 93.437500 9.201520 2.500000 -0.18242270 -0.31596539 0.93106811 2.5 0 0 0
2106 1 94.687500 11.366583 2.500000 -0.00000000 -0.00000000 1.00000000 2.5 0 0 0
2107 1 95.937500 13.531647 2.500000 0.18242270 0.31596539 0.93106811 2.5 0 0 0
2108 1 97.187500 15.696710 2.500000 0.26773829 0.46373631 0.84455008 2.5 0 0 0
2109 1 98.437500 17.861774 2.500000 0.26773829 0.46373631 0.84455008 2.5 0 0 0
2110 1 99.687500 20.026837 2.500000 0.18242270 0.31596539 0.93106811 2.5 0 0 0
2111 1 100.937500 22.191901 2.500000 0.00000000 -0.00000000 1.00000000 2.5 0 0 0
2112 1 102.187500 24.356964 2.500000 -0.18242270 -0.31596539 0.93106811 2.5 0 0 0
2113 1 103.437500 26.522028 2.500000 -0.26773829 -0.46373631 0.84455008 2.5 0 0 0
2114 1 104.687500 28.687092 2.500000 -0.26773829 -0.46373631 0.84455008 2.5 0 0 0
2115 1 105.937500 30.852155 2.500000 -0.18242270 -0.31596539 0.93106811 2.5 0 0 0
2116 1 107.187500 33.017219 2.500000 -0.00000000 -0.00000000 1.00000000 2.5 0 0 0
2117 1 108.437500 35.182282 2.500000 0.18242270 0.31596539 0.93106811 2.5 0 0 0
2118 1 109.687500 37.347346 2.500000 0.26773829 0.46373631 0.84455008 2.5 0 0 0
2119 1 110.937500 39.512409 2.500000 0.26773829 0.46373631 0.84455008 2.5 0 0 0
2120 1 112.187500 41.677473 2.500000 0.18242270 0.31596539 0.93106811 2.5 0 0 0
2121 1 113.437500 43.842536 2.500000 0.00000000 -0.00000000 1.00000000 2.5 0 0 0
2122 1 114.687500 46.007600 2.500000 -0.18242270 -0.31596539 0.93106811 2.5 0 0 0
2123 1 115.937500 48.172663 2.500000 -0.26773829 -0.46373631 0.84455008 2.5 0 0 0
2124 1 117.187500 50.337727 2.500000 -0.26773829 -0.46373631 0.84455008 2.5 0 0 0
2125 1 118.437500 52.502790 2.500000 -0.18242270 -0.31596539 0.93106811 2.5 0 0 0
2126 1 119.687500 54.667854 2.500000 0.00000000 -0.00000000 1.00000000 2.5 0 0 0
2127 1 120.937500 56.832917 2.500000 0.18242270 0.31596539 0.93106811 2.5 0 0 0
2128 1 122.187500 58.997981 2.500000 0.26773829 0.46373631 0.84455008 2.5 0 0 0
2129 1 123.437500 61.163044 2.500000 0.26773829 0.46373631 0.84455008 2.5 0 0 0
2130 1 124.687500 63.328108 2.500000 0.18242270 0.31596539 0.93106811 2.5 0 0 0
2131 1 125.937500 65.493171 2.500000 0.00000000 -0.00000000 1.00000000 2.5 0 0 0
2132 1 127.187500 67.658235 2.500000 -0.18242270 -0.31596539 0.93106811 2.5 0 0 0
2133 1 128.437500 69.823298 2.500000 -0.26773829 -0.46373631 0.84455008 2.5 0 0 0
2134 1 129.687500 71.988362 2.500000 -0.26773829 -0.46373631 0.84455008 2.5 0 0 0
2135 1 130.937500 74.153425 2.500000 -0.18242270 -0.31596539 0.93106811 2.5 0 0 0
2136 1 132.187500 76.318489 2.500000 -0.00000000 -0.00000000 1.00000000 2.5 0 0 0
2137 1 133.437500 78.483552 2.500000 0.18242270 0.31596539 0.93106811 2.5 0 0 0
2138 1 134.687500 80.648616 2.500000 0.26773829 0.46373631 0.84455008 2.5 0 0 0
2139 1 135.937500 82.813679 2.500000 0.26773829 0.46373631 0.84455008 2.5 0 0 0
2140 1 137.187500 84.978743 2.500000 0.18242270 0.31596539 0.93106811 2.5 0 0 0
2141 1 138.437500 87.143806 2.500000 0.00000000 -0.00000000 1.00000000 2.5 0 0 0
2142 1 139.687500 89.308870 2.500000 -0.18242270 -0.31596539 0.93106811 2.5 0 0 0
2143 1 140.937500 91.473933 2.500000 -0.26773829 -0.46373631 0.84455008 2.5 0 0 0
2144 1 142.187500 93.638997 2.500000 -0.26773829 -0.46373631 0.84455008 2.5 0 0 0
2145 1 143.437500 95.804060 2.500000 -0.18242270 -0.31596539 0.93106811 2.5 0 0 0
2146 1 144.687500 97.969124 2.500000 -0.00000000 0.00000000 1.00000000 2.5 0 0 0
2147 1 145.937500 100.134187 2.500000 0.18242270 0.31596539 0.93106811 2.5 0 0 0
2148 1 147.187500 102.299251 2.500000 0.26773829 0.46373631 0.84455008 2.5 0 0 0
2149 1 148.437500 104.464314 2.500000 0.26773829 0.46373631 0.84455008 2.5 0 0 0
2150 1 149.687500 106.629378 2.500000 0.18242270 0.31596539 0.93106811 2.5 0 0 0
2151 1 150.937500 108.794441 2.500000 0.00000000 0.00000000 1.00000000 2.5 0 0 0
2152 1 152.187500 110.959505 2.500000 -0.18242270 -0.31596539 0.93106811 2.5 0 0 0
2153 1 153.437500 113.124568 2.500000 -0.26773829 -0.46373631 0.84455008 2.5 0 0 0
2154 1 154.687500 115.289632 2.500000 -0.26773829 -0.46373631 0.84455008 2.5 0 0 0
2155 1 155.937500 117.454695 2.500000 -0.18242270 -0.31596539 0.93106811 2.5 0 0 0
2156 1 157.187500 119.619759 2.500000 0.00000000 0.00000000 1.00000000 2.5 0 0 0
2157 1 158.437500 121.784822 2.500000 0.18242270 0.31596539 0.93106811 2.5 0 0 0
2158 1 159.687500 123.949886 2.500000 0.26773829 0.46373631 0.84455008 2.5 0 0 0
2159 1 160.937500 126.114949 2.500000 0.26773829 0.46373631 0.84455008 2.5 0 0 0
2160 1 162.187500 128.280013 2.500000 0.18242270 0.31596539 0.93106811 2.5 0 0 0
2161 1 90.937500 0.541266 2.500000 0.00000000 -0.67328065 0.73938702 2.5 0 0 0
2162 1 92.187500 2.706329 2.500000 -0.25210197 -0.82720813 0.50216662 2.5 0 0 0
2163 1 93.437500 4.871393 2.500000 -0.45612652 -0.79003431 0.40962714 2.5 0 0 0
2164 1 94.687500 7.036456 2.500000 -0.59033226 -0.63193078 0.50216662 2.5 0 0 0
2165 1 95.937500 9.201520 2.500000 -0.58307814 -0.33664032 0.73938702 2.5 0 0 0
2166 1 97.187500 11.366583 2.500000 -0.36484540 0.00000000 0.93106811 2.5 0 0 0
2167 1 98.437500 13.531647 2.500000 -0.09844051 0.17050396 0.98042739 2.5 0 0 0
2168 1 99.687500 15.696710 2.500000 0.09262434 0.16043006 0.98269167 2.5 0 0 0
2169 1 100.937500 17.861774 2.500000 0.19688101 -0.00000000 0.98042739 2.5 0 0 0
2170 1 102.187500 20.026837 2.500000 0.18242270 -0.31596539 0.93106811 2.5 0 0 0
2171 1 103.437500 22.191901 2.500000 0.00000000 -0.67328065 0.73938702 2.5 0 0 0
2172 1 104.687500 24.356964 2.500000 -0.25210197 -0.82720813 0.50216662 2.5 0 0 0
2173 1 105.937500 26.522028 2.500000 -0.45612652 -0.79003431 0.40962714 2.5 0 0 0
2174 1 107.187500 28.687092 2.500000 -0.59033226 -0.63193078 0.50216662 2.5 0 0 0
2175 1 108.437500 30.852155 2.500000 -0.58307814 -0.33664032 0.73938702 2.5 0 0 0
2176 1 109.687500 33.017219 2.500000 -0.36484540 0.00000000 0.93106811 2.5 0 0 0
2177 1 110.937500 35.182282 2.500000 -0.09844051 0.17050396 0.98042739 2.5 0 0 0
2178 1 112.187500 37.347346 2.500000 0.09262434 0.16043006 0.98269167 2.5 0 0 0
2179 1 113.437500 39.512409 2.500000 0.19688101 -0.00000000 0.98042739 2.5 0 0 0
2180 1 114.687500 41.677473 2.500000 0.18242270 -0.31596539 0.93106811 2.5 0 0 0
2181 1 115.937500 43.842536 2.500000 -0.00000000 -0.67328065 0.73938702 2.5 0 0 0
2182 1 117.187500 46.007600 2.500000 -0.25210197 -0.82720813 0.50216662 2.5 0 0 0
2183 1 118.437500 48.172663 2.500000 -0.45612652 -0.79003431 0.40962714 2.5 0 0 0
2184 1 119.687500 50.337727 2.500000 -0.59033226 -0.63193078 0.50216662 2.5 0 0 0
2185 1 120.937500 52.502790 2.500000 -0.58307814 -0.33664032 0.73938702 2.5 0 0 0
2186 1 122.187500 54.667854 2.500000 -0.36484540 0.00000000 0.93106811 2.5 0 0 0
2187 1 123.437500 56.832917 2.500000 -0.09844051 0.17050396 0.98042739 2.5 0 0 0
2188 1 124.687500 58.997981 2.500000 0.09262434 0.16043006 0.98269167 2.5 0 0 0
2189 1 125.937500 61.163044 2.500000 0.19688101 -0.00000000 0.98042739 2.5 0 0 0
2190 1 127.187500 63.328108 2.500000 0.18242270 -0.31596539 0.93106811 2.5 0 0 0
2191 1 128.437500 65.493171 2.500000 0.00000000 -0.67328065 0.73938702 2.5 0 0 0
2192 1 129.687500 67.658235 2.500000 -0.25210197 -0.82720813 0.50216662 2.5 0 0 0
2193 1 130.937500 69.823298 2.500000 -0.45612652 -0.79003431 0.40962714 2.5 0 0 0
2194 1 132.187500 71.988362 2.500000 -0.59033226 -0.63193078 0.50216662 2.5 0 0 0
2195 1 133.437500 74.153425 2.500000 -0.58307814 -0.33664032 0.73938702 2.5 0 0 0
2196 1 134.687500 76.318489 2.500000 -0.36484540 -0.00000000 0.93106811 2.5 0 0 0
2197 1 135.937500 78.483552 2.500000 -0.09844051 0.17050396 0.98042739 2.5 0 0 0
2198 1 137.187500 80.648616 2.500000 0.09262434 0.16043006 0.98269167 2.5 0 0 0
2199 1 138.437500 82.813679 2.500000 0.19688101 -0.00000000 0.98042739 2.5 0 0 0
2200 1 139.687500 84.978743 2.500000 0.18242270 -0.31596539 0.93106811 2.5 0 0 0
2201 1 140.937500 87.143806 2.500000 0.00000000 -0.67328065 0.73938702 2.5 0 0 0
2202 1 142.187500 89.308870 2.500000 -0.25210197 -0.82720813 0.50216662 2.5 0 0 0
2203 1 143.437500 91.473933 2.500000 -0.45612652 -0.79003431 0.40962714 2.5 0 0 0
2204 1 144.687500 93.638997 2.500000 -0.59033226 -0.63193078 0.50216662 2.5 0 0 0
2205 1 145.937500 95.804060 2.500000 -0.58307814 -0.33664032 0.73938702 2.5 0 0 0
2206 1 147.187500 97.969124 2.500000 -0.36484540 0.00000000 0.93106811 2.5 0 0 0
2207 1 148.437500 100.134187 2.500000 -0.09844051 0.17050396 0.98042739 2.5 0 0 0
2208 1 149.687500 102.299251 2.500000 0.09262434 0.16043006 0.98269167 2.5 0 0 0
2209 1 150.937500 104.464314 2.500000 0.19688101 0.00000000 0.98042739 2.5 0 0 0
2210 1 152.187500 106.629378 2.500000 0.18242270 -0.31596539 0.93106811 2.5 0 0 0
2211 1 153.437500 108.794441 2.500000 0.00000000 -0.67328065 0.73938702 2.5 0 0 0
2212 1 154.687500 110.959505 2.500000 -0.25210197 -0.82720813 0.50216662 2.5 0 0 0
2213 1 155.937500 113.124568 2.500000 -0.45612652 -0.79003431 0.40962714 2.5 0 0 0
2214 1 157.187500 115.289632 2.500000 -0.59033226 -0.63193078 0.50216662 2.5 0 0 0
2215 1 158.437500 117.454695 2.500000 -0.58307814 -0.33664032 0.73938702 2.5 0 0 0
2216 1 159.687500 119.619759 2.500000 -0.36484540 0.00000000 0.93106811 2.5 0 0 0
2217 1 160.937500 121.784822 2.500000 -0.09844051 0.17050396 0.98042739 2.5 0 0 0
2218 1 162.187500 123.949886 2.500000 0.09262434 0.16043006 0.98269167 2.5 0 0 0
2219 1 163.437500 126.114949 2.500000 0.19688101 -0.00000000 0.98042739 2.5 0 0 0
2220 1 164.687500 128.280013 2.500000 0.18242270 -0.31596539 0.93106811 2.5 0 0 0
2221 1 93.437500 0.541266 2.500000 0.00000000 -0.99744270 0.07147071 2.5 0 0 0
2222 1 94.687500 2.706329 2.500000 -0.33094272 -0.92747263 -0.17398689 2.5 0 0 0
2223 1 95.937500 4.871393 2.500000 -0.63774350 -0.75034112 -0.17398689 2.5 0 0 0
2224 1 97.187500 7.036456 2.500000 -0.86381072 -0.49872135 0.07147071 2.5 0 0 0
2225 1 98.437500 9.201520 2.500000 -0.84243424 -0.19527735 0.50216662 2.5 0 0 0
2226 1 99.687500 11.366583 2.500000 -0.53547657 -0.00000000 0.84455008 2.5 0 0 0
2227 1 100.937500 13.531647 2.500000 -0.18524868 -0.00000000 0.98269167 2.5 0 0 0
2228 1 102.187500 15.696710 2.500000 0.09262434 -0.16043006 0.98269167 2.5 0 0 0
2229 1 103.437500 17.861774 2.500000 0.26773829 -0.46373631 0.84455008 2.5 0 0 0
2230 1 104.687500 20.026837 2.500000 0.25210197 -0.82720813 0.50216662 2.5 0 0 0
2231 1 105.937500 22.191901 2.500000 0.00000000 -0.99744270 0.07147071 2.5 0 0 0
2232 1 107.187500 24.356964 2.500000 -0.33094272 -0.92747263 -0.17398689 2.5 0 0 0
2233 1 108.437500 26.522028 2.500000 -0.63774350 -0.75034112 -0.17398689 2.5 0 0 0
2234 1 109.687500 28.687092 2.500000 -0.86381072 -0.49872135 0.07147071 2.5 0 0 0
2235 1 110.937500 30.852155 2.500000 -0.84243424 -0.19527735 0.50216662 2.5 0 0 0
2236 1 112.187500 33.017219 2.500000 -0.53547657 -0.00000000 0.84455008 2.5 0 0 0
2237 1 113.437500 35.182282 2.500000 -0.18524868 -0.00000000 0.98269167 2.5 0 0 0
2238 1 114.687500 37.347346 2.500000 0.09262434 -0.16043006 0.98269167 2.5 0 0 0
2239 1 115.937500 39.512409 2.500000 0.26773829 -0.46373631 0.84455008 2.5 0 0 0
2240 1 117.187500 41.677473 2.500000 0.25210197 -0.82720813 0.50216662 2.5 0 0 0
2241 1 118.437500 43.842536 2.500000 0.00000000 -0.99744270 0.07147071 2.5 0 0 0
2242 1 119.687500 46.007600 2.500000 -0.33094272 -0.92747263 -0.17398689 2.5 0 0 0
2243 1 120.937500 48.172663 2.500000 -0.63774350 -0.75034112 -0.17398689 2.5 0 0 0
2244 1 122.187500 50.337727 2.500000 -0.86381072 -0.49872135 0.07147071 2.5 0 0 0
2245 1 123.437500 52.502790 2.500000 -0.84243424 -0.19527735 0.50216662 2.5 0 0 0
2246 1 124.687500 54.667854 2.500000 -0.53547657 -0.00000000 0.84455008 2.5 0 0 0
2247 1 125.937500 56.832917 2.500000 -0.18524868 -0.00000000 0.98269167 2.5 0 0 0
2248 1 127.187500 58.997981 2.500000 0.09262434 -0.16043006 0.98269167 2.5 0 0 0
2249 1 128.437500 61.163044 2.500000 0.26773829 -0.46373631 0.84455008 2.5 0 0 0
2250 1 129.687500 63.328108 2.500000 0.25210197 -0.82720813 0.50216662 2.5 0 0 0
2251 1 130.937500 65.493171 2.500000 0.00000000 -0.99744270 0.07147071 2.5 0 0 0
2252 1 132.187500 67.658235 2.500000 -0.33094272 -0.92747263 -0.17398689 2.5 0 0 0
2253 1 133.437500 69.823298 2.500000 -0.63774350 -0.75034112 -0.17398689 2.5 0 0 0
2254 1 134.687500 71.988362 2.500000 -0.86381072 -0.49872135 0.07147071 2.5 0 0 0
2255 1 135.937500 74.153425 2.500000 -0.84243424 -0.19527735 0.50216662 2.5 0 0 0
2256 1 137.187500 76.318489 2.500000 -0.53547657 -0.00000000 0.84455008 2.5 0 0 0
2257 1 138.437500 78.483552 2.500000 -0.18524868 -0.00000000 0.98269167 2.5 0 0 0
2258 1 139.687500 80.648616 2.500000 0.09262434 -0.16043006 0.98269167 2.5 0 0 0
2259 1 140.937500 82.813679 2.500000 0.26773829 -0.46373631 0.84455008 2.5 0 0 0
2260 1 142.187500 84.978743 2.500000 0.25210197 -0.82720813 0.50216662 2.5 0 0 0
2261 1 143.437500 87.143806 2.500000 0.00000000 -0.99744270 0.07147071 2.5 0 0 0
2262 1 144.687500 89.308870 2.500000 -0.33094272 -0.92747263 -0.17398689 2.5 0 0 0
2263 1 145.937500 91.473933 2.500000 -0.63774350 -0.75034112 -0.17398689 2.5 0 0 0
2264 1 147.187500 93.638997 2.500000 -0.86381072 -0.49872135 0.07147071 2.5 0 0 0
2265 1 148.437500 95.804060 2.500000 -0.84243424 -0.19527735 0.50216662 2.5 0 0 0
2266 1 149.687500 97.969124 2.500000 -0.53547657 0.00000000 0.84455008 2.5 0 0 0
2267 1 150.937500 100.134187 2.500000 -0.18524868 0.00000000 0.98269167 2.5 0 0 0
2268 1 152.187500 102.299251 2.500000 0.09262434 -0.16043006 0.98269167 2.5 0 0 0
2269 1 153.437500 104.464314 2.500000 0.26773829 -0.46373631 0.84455008 2.5 0 0 0
2270 1 154.687500 106.629378 2.500000 0.25210197 -0.82720813 0.50216662 2.5 0 0 0
2271 1 155.937500 108.794441 2.500000 -0.00000000 -0.99744270 0.07147071 2.5 0 0 0
2272 1 157.187500 110.959505 2.500000 -0.33094272 -0.92747263 -0.17398689 2.5 0 0 0
2273 1 158.437500 113.124568 2.500000 -0.63774350 -0.75034112 -0.17398689 2.5 0 0 0
2274 1 159.687500 115.289632 2.500000 -0.86381072 -0.49872135 0.07147071 2.5 0 0 0
2275 1 160.937500 117.454695 2.500000 -0.84243424 -0.19527735 0.50216662 2.5 0 0 0
2276 1 162.187500 119.619759 2.500000 -0.53547657 -0.00000000 0.84455008 2.5 0 0 0
2277 1 163.437500 121.784822 2.500000 -0.18524868 -0.00000000 0.98269167 2.5 0 0 0
2278 1 164.687500 123.949886 2.500000 0.09262434 -0.16043006 0.98269167 2.5 0 0 0
2279 1 165.937500 126.114949 2.500000 0.26773829 -0.46373631 0.84455008 2.5 0 0 0
2280 1 167.187500 128.280013 2.500000 0.25210197 -0.82720813 0.50216662 2.5 0 0 0
2281 1 95.937500 0.541266 2.500000 0.00000000 -0.82742021 -0.56158329 2.5 0 0 0
2282 1 97.187500 2.706329 2.500000 -0.36661923 -0.63500314 -0.67997158 2.5 0 0 0
2283 1 98.437500 4.871393 2.500000 -0.71656692 -0.41371011 -0.56158329 2.5 0 0 0
2284 1 99.687500 7.036456 2.500000 -0.96868622 -0.17713151 -0.17398689 2.5 0 0 0
2285 1 100.937500 9.201520 2.500000 -0.91225304 0.00000000 0.40962714 2.5 0 0 0
2286 1 102.187500 11.366583 2.500000 -0.53547657 -0.00000000 0.84455008 2.5 0 0 0
2287 1 103.437500 13.531647 2.500000 -0.09844051 -0.17050396 0.98042739 2.5 0 0 0
2288 1 104.687500 15.696710 2.500000 0.26773829 -0.46373631 0.84455008 2.5 0 0 0
2289 1 105.937500 17.861774 2.500000 0.45612652 -0.79003431 0.40962714 2.5 0 0 0
2290 1 107.187500 20.026837 2.500000 0.33094272 -0.92747263 -0.17398689 2.5 0 0 0
2291 1 108.437500 22.191901 2.500000 0.00000000 -0.82742021 -0.56158329 2.5 0 0 0
2292 1 109.687500 24.356964 2.500000 -0.36661923 -0.63500314 -0.67997158 2.5 0 0 0
2293 1 110.937500 26.522028 2.500000 -0.71656692 -0.41371011 -0.56158329 2.5 0 0 0
2294 1 112.187500 28.687092 2.500000 -0.96868622 -0.17713151 -0.17398689 2.5 0 0 0
2295 1 113.437500 30.852155 2.500000 -0.91225304 0.00000000 0.40962714 2.5 0 0 0
2296 1 114.687500 33.017219 2.500000 -0.53547657 -0.00000000 0.84455008 2.5 0 0 0
2297 1 115.937500 35.182282 2.500000 -0.09844051 -0.17050396 0.98042739 2.5 0 0 0
2298 1 117.187500 37.347346 2.500000 0.26773829 -0.46373631 0.84455008 2.5 0 0 0
2299 1 118.437500 39.512409 2.500000 0.45612652 -0.79003431 0.40962714 2.5 0 0 0
2300 1 119.687500 41.677473 2.500000 0.33094272 -0.92747263 -0.17398689 2.5 0 0 0
2301 1 120.937500 43.842536 2.500000 0.00000000 -0.82742021 -0.56158329 2.5 0 0 0
2302 1 122.187500 46.007600 2.500000 -0.36661923 -0.63500314 -0.67997158 2.5 0 0 0
2303 1 123.437500 48.172663 2.500000 -0.71656692 -0.41371011 -0.56158329 2.5 0 0 0
2304 1 124.687500 50.337727 2.500000 -0.96868622 -0.17713151 -0.17398689 2.5 0 0 0
2305 1 125.937500 52.502790 2.500000 -0.91225304 0.00000000 0.40962714 2.5 0 0 0
2306 1 127.187500 54.667854 2.500000 -0.53547657 -0.00000000 0.84455008 2.5 0 0 0
2307 1 128.437500 56.832917 2.500000 -0.09844051 -0.17050396 0.98042739 2.5 0 0 0
2308 1 129.687500 58.997981 2.500000 0.26773829 -0.46373631 0.84455008 2.5 0 0 0
2309 1 130.937500 61.163044 2.500000 0.45612652 -0.79003431 0.40962714 2.5 0 0 0
2310 1 132.187500 63.328108 2.500000 0.33094272 -0.92747263 -0.17398689 2.5 0 0 0
2311 1 133.437500 65.493171 2.500000 0.00000000 -0.82742021 -0.56158329 2.5 0 0 0
2312 1 134.687500 67.658235 2.500000 -0.36661923 -0.63500314 -0.67997158 2.5 0 0 0
2313 1 135.937500 69.823298 2.500000 -0.71656692 -0.41371011 -0.56158329 2.5 0 0 0
2314 1 137.187500 71.988362 2.500000 -0.96868622 -0.17713151 -0.17398689 2.5 0 0 0
2315 1 138.437500 74.153425 2.500000 -0.91225304 0.00000000 0.40962714 2.5 0 0 0
2316 1 139.687500 76.318489 2.500000 -0.53547657 0.00000000 0.84455008 2.5 0 0 0
2317 1 140.937500 78.483552 2.500000 -0.09844051 -0.17050396 0.98042739 2.5 0 0 0
2318 1 142.187500 80.648616 2.500000 0.26773829 -0.46373631 0.84455008 2.5 0 0 0
2319 1 143.437500 82.813679 2.500000 0.45612652 -0.79003431 0.40962714 2.5 0 0 0
2320 1 144.687500 84.978743 2.500000 0.33094272 -0.92747263 -0.17398689 2.5 0 0 0
2321 1 145.937500 87.143806 2.500000 0.00000000 -0.82742021 -0.56158329 2.5 0 0 0
2322 1 147.187500 89.308870 2.500000 -0.36661923 -0.63500314 -0.67997158 2.5 0 0 0
2323 1 148.437500 91.473933 2.500000 -0.71656692 -0.41371011 -0.56158329 2.5 0 0 0
2324 1 149.687500 93.638997 2.500000 -0.96868622 -0.17713151 -0.17398689 2.5 0 0 0
2325 1 150.937500 95.804060 2.500000 -0.91225304 -0.00000000 0.40962714 2.5 0 0 0
2326 1 152.187500 97.969124 2.500000 -0.53547657 -0.00000000 0.84455008 2.5 0 0 0
2327 1 153.437500 100.134187 2.500000 -0.09844051 -0.17050396 0.98042739 2.5 0 0 0
2328 1 154.687500 102.299251 2.500000 0.26773829 -0.46373631 0.84455008 2.5 0 0 0
2329 1 155.937500 104.464314 2.500000 0.45612652 -0.79003431 0.40962714 2.5 0 0 0
2330 1 157.187500 106.629378 2.500000 0.33094272 -0.92747263 -0.17398689 2.5 0 0 0
2331 1 158.437500 108.794441 2.500000 -0.00000000 -0.82742021 -0.56158329 2.5 0 0 0
2332 1 159.687500 110.959505 2.500000 -0.36661923 -0.63500314 -0.67997158 2.5 0 0 0
2333 1 160.937500 113.124568 2.500000 -0.71656692 -0.41371011 -0.56158329 2.5 0 0 0
2334 1 162.187500 115.289632 2.500000 -0.96868622 -0.17713151 -0.17398689 2.5 0 0 0
2335 1 163.437500 117.454695 2.500000 -0.91225304 0.00000000 0.40962714 2.5 0 0 0
2336 1 164.687500 119.619759 2.500000 -0.53547657 0.00000000 0.84455008 2.5 0 0 0
2337 1 165.937500 121.784822 2.500000 -0.09844051 -0.17050396 0.98042739 2.5 0 0 0
2338 1 167.187500 123.949886 2.500000 0.26773829 -0.46373631 0.84455008 2.5 0 0 0
2339 1 168.437500 126.114949 2.500000 0.45612652 -0.79003431 0.40962714 2.5 0 0 0
2340 1 169.687500 128.280013 2.500000 0.33094272 -0.92747263 -0.17398689 2.5 0 0 0
2341 1 98.437500 0.541266 2.500000 0.00000000 -0.43322128 -0.90128759 2.5 0 0 0
2342 1 99.687500 2.706329 2.500000 -0.37518063 -0.21661064 -0.90128759 2.5 0 0 0
2343 1 100.937500 4.871393 2.500000 -0.73323847 0.00000000 -0.67997158 2.5 0 0 0
2344 1 102.187500 7.036456 2.500000 -0.96868622 0.17713151 -0.17398689 2.5 0 0 0
2345 1 103.437500 9.201520 2.500000 -0.84243424 0.19527735 0.50216662 2.5 0 0 0
2346 1 104.687500 11.366583 2.500000 -0.36484540 0.00000000 0.93106811 2.5 0 0 0
2347 1 105.937500 13.531647 2.500000 0.18242270 -0.31596539 0.93106811 2.5 0 0 0
2348 1 107.187500 15.696710 2.500000 0.59033226 -0.63193078 0.50216662 2.5 0 0 0
2349 1 108.437500 17.861774 2.500000 0.63774350 -0.75034112 -0.17398689 2.5 0 0 0
2350 1 109.687500 20.026837 2.500000 0.36661923 -0.63500314 -0.67997158 2.5 0 0 0
2351 1 110.937500 22.191901 2.500000 0.00000000 -0.43322128 -0.90128759 2.5 0 0 0
2352 1 112.187500 24.356964 2.500000 -0.37518063 -0.21661064 -0.90128759 2.5 0 0 0
2353 1 113.437500 26.522028 2.500000 -0.73323847 0.00000000 -0.67997158 2.5 0 0 0
2354 1 114.687500 28.687092 2.500000 -0.96868622 0.17713151 -0.17398689 2.5 0 0 0
2355 1 115.937500 30.852155 2.500000 -0.84243424 0.19527735 0.50216662 2.5 0 0 0
2356 1 117.187500 33.017219 2.500000 -0.36484540 0.00000000 0.93106811 2.5 0 0 0
2357 1 118.437500 35.182282 2.500000 0.18242270 -0.31596539 0.93106811 2.5 0 0 0
2358 1 119.687500 37.347346 2.500000 0.59033226 -0.63193078 0.50216662 2.5 0 0 0
2359 1 120.937500 39.512409 2.500000 0.63774350 -0.75034112 -0.17398689 2.5 0 0 0
2360 1 122.187500 41.677473 2.500000 0.36661923 -0.63500314 -0.67997158 2.5 0 0 0
2361 1 123.437500 43.842536 2.500000 0.00000000 -0.43322128 -0.90128759 2.5 0 0 0
2362 1 124.687500 46.007600 2.500000 -0.37518063 -0.21661064 -0.90128759 2.5 0 0 0
2363 1 125.937500 48.172663 2.500000 -0.73323847 0.00000000 -0.67997158 2.5 0 0 0
2364 1 127.187500 50.337727 2.500000 -0.96868622 0.17713151 -0.17398689 2.5 0 0 0
2365 1 128.437500 52.502790 2.500000 -0.84243424 0.19527735 0.50216662 2.5 0 0 0
2366 1 129.687500 54.667854 2.500000 -0.36484540 -0.00000000 0.93106811 2.5 0 0 0
2367 1 130.937500 56.832917 2.500000 0.18242270 -0.31596539 0.93106811 2.5 0 0 0
2368 1 132.187500 58.997981 2.500000 0.59033226 -0.63193078 0.50216662 2.5 0 0 0
2369 1 133.437500 61.163044 2.500000 0.63774350 -0.75034112 -0.17398689 2.5 0 0 0
2370 1 134.687500 63.328108 2.500000 0.36661923 -0.63500314 -0.67997158 2.5 0 0 0
2371 1 135.937500 65.493171 2.500000 -0.00000000 -0.43322128 -0.90128759 2.5 0 0 0
2372 1 137.187500 67.658235 2.500000 -0.37518063 -0.21661064 -0.90128759 2.5 0 0 0
2373 1 138.437500 69.823298 2.500000 -0.73323847 0.00000000 -0.67997158 2.5 0 0 0
2374 1 139.687500 71.988362 2.500000 -0.96868622 0.17713151 -0.17398689 2.5 0 0 0
2375 1 140.937500 74.153425 2.500000 -0.84243424 0.19527735 0.50216662 2.5 0 0 0
2376 1 142.187500 76.318489 2.500000 -0.36484540 0.00000000 0.93106811 2.5 0 0 0
2377 1 143.437500 78.483552 2.500000 0.18242270 -0.31596539 0.93106811 2.5 0 0 0
2378 1 144.687500 80.648616 2.500000 0.59033226 -0.63193078 0.50216662 2.5 0 0 0
2379 1 145.937500 82.813679 2.500000 0.63774350 -0.75034112 -0.17398689 2.5 0 0 0
2380 1 147.187500 84.978743 2.500000 0.36661923 -0.63500314 -0.67997158 2.5 0 0 0
2381 1 148.437500 87.143806 2.500000 0.00000000 -0.43322128 -0.90128759 2.5 0 0 0
2382 1 149.687500 89.308870 2.500000 -0.37518063 -0.21661064 -0.90128759 2.5 0 0 0
2383 1 150.937500 91.473933 2.500000 -0.73323847 0.00000000 -0.67997158 2.5 0 0 0
2384 1 152.187500 93.638997 2.500000 -0.96868622 0.17713151 -0.17398689 2.5 0 0 0
2385 1 153.437500 95.804060 2.500000 -0.84243424 0.19527735 0.50216662 2.5 0 0 0
2386 1 154.687500 97.969124 2.500000 -0.36484540 -0.00000000 0.93106811 2.5 0 0 0
2387 1 155.937500 100.134187 2.500000 0.18242270 -0.31596539 0.93106811 2.5 0 0 0
2388 1 157.187500 102.299251 2.500000 0.59033226 -0.63193078 0.50216662 2.5 0 0 0
2389 1 158.437500 104.464314 2.500000 0.63774350 -0.75034112 -0.17398689 2.5 0 0 0
2390 1 159.687500 106.629378 2.500000 0.36661923 -0.63500314 -0.67997158 2.5 0 0 0
2391 1 160.937500 108.794441 2.500000 -0.00000000 -0.43322128 -0.90128759 2.5 0 0 0
2392 1 162.187500 110.959505 2.500000 -0.37518063 -0.21661064 -0.90128759 2.5 0 0 0
2393 1 163.437500 113.124568 2.500000 -0.73323847 0.00000000 -0.67997158 2.5 0 0 0
2394 1 164.687500 115.289632 2.500000 -0.96868622 0.17713151 -0.17398689 2.5 0 0 0
2395 1 165.937500 117.454695 2.500000 -0.84243424 0.19527735 0.50216662 2.5 0 0 0
2396 1 167.187500 119.619759 2.500000 -0.36484540 -0.00000000 0.93106811 2.5 0 0 0
2397 1 168.437500 121.784822 2.500000 0.18242270 -0.31596539 0.93106811 2.5 0 0 0
2398 1 169.687500 123.949886 2.500000 0.59033226 -0.63193078 0.50216662 2.5 0 0 0
2399 1 170.937500 126.114949 2.500000 0.63774350 -0.75034112 -0.17398689 2.5 0 0 0
2400 1 172.187500 128.280013 2.500000 0.36661923 -0.63500314 -0.67997158 2.5 0 0 0
2401 1 100.937500 0.541266 2.500000 0.00000000 0.00000000 -1.00000000 2.5 0 0 0
2402 1 102.187500 2.706329 2.500000 -0.37518063 0.21661064 -0.90128759 2.5 0 0 0
2403 1 103.437500 4.871393 2.500000 -0.71656692 0.41371011 -0.56158329 2.5 0 0 0
2404 1 104.687500 7.036456 2.500000 -0.86381072 0.49872135 0.07147071 2.5 0 0 0
2405 1 105.937500 9.201520 2.500000 -0.58307814 0.33664032 0.73938702 2.5 0 0 0
2406 1 107.187500 11.366583 2.500000 0.00000000 -0.00000000 1.00000000 2.5 0 0 0
2407 1 108.437500 13.531647 2.500000 0.58307814 -0.33664032 0.73938702 2.5 0 0 0
2408 1 109.687500 15.696710 2.500000 0.86381072 -0.49872135 0.07147071 2.5 0 0 0
2409 1 110.937500 17.861774 2.500000 0.71656692 -0.41371011 -0.56158329 2.5 0 0 0
2410 1 112.187500 20.026837 2.500000 0.37518063 -0.21661064 -0.90128759 2.5 0 0 0
2411 1 113.437500 22.191901 2.500000 0.00000000 0.00000000 -1.00000000 2.5 0 0 0
2412 1 114.687500 24.356964 2.500000 -0.37518063 0.21661064 -0.90128759 2.5 0 0 0
2413 1 115.937500 26.522028 2.500000 -0.71656692 0.41371011 -0.56158329 2.5 0 0 0
2414 1 117.187500 28.687092 2.500000 -0.86381072 0.49872135 0.07147071 2.5 0 0 0
2415 1 118.437500 30.852155 2.500000 -0.58307814 0.33664032 0.73938702 2.5 0 0 0
2416 1 119.687500 33.017219 2.500000 0.00000000 -0.00000000 1.00000000 2.5 0 0 0
2417 1 120.937500 35.182282 2.500000 0.58307814 -0.33664032 0.73938702 2.5 0 0 0
2418 1 122.187500 37.347346 2.500000 0.86381072 -0.49872135 0.07147071 2.5 0 0 0
2419 1 123.437500 39.512409 2.500000 0.71656692 -0.41371011 -0.56158329 2.5 0 0 0
2420 1 124.687500 41.677473 2.500000 0.37518063 -0.21661064 -0.90128759 2.5 0 0 0
2421 1 125.937500 43.842536 2.500000 0.00000000 0.00000000 -1.00000000 2.5 0 0 0
2422 1 127.187500 46.007600 2.500000 -0.37518063 0.21661064 -0.90128759 2.5 0 0 0
2423 1 128.437500 48.172663 2.500000 -0.71656692 0.41371011 -0.56158329 2.5 0 0 0
2424 1 129.687500 50.337727 2.500000 -0.86381072 0.49872135 0.07147071 2.5 0 0 0
2425 1 130.937500 52.502790 2.500000 -0.58307814 0.33664032 0.73938702 2.5 0 0 0
2426 1 132.187500 54.667854 2.500000 0.00000000 -0.00000000 1.00000000 2.5 0 0 0
2427 1 133.437500 56.832917 2.500000 0.58307814 -0.33664032 0.73938702 2.5 0 0 0
2428 1 134.687500 58.997981 2.500000 0.86381072 -0.49872135 0.07147071 2.5 0 0 0
2429 1 135.937500 61.163044 2.500000 0.71656692 -0.41371011 -0.56158329 2.5 0 0 0
2430 1 137.187500 63.328108 2.500000 0.37518063 -0.21661064 -0.90128759 2.5 0 0 0
2431 1 138.437500 65.493171 2.500000 -0.00000000 0.00000000 -1.00000000 2.5 0 0 0
2432 1 139.687500 67.658235 2.500000 -0.37518063 0.21661064 -0.90128759 2.5 0 0 0
2433 1 140.937500 69.823298 2.500000 -0.71656692 0.41371011 -0.56158329 2.5 0 0 0
2434 1 142.187500 71.988362 2.500000 -0.86381072 0.49872135 0.07147071 2.5 0 0 0
2435 1 143.437500 74.153425 2.500000 -0.58307814 0.33664032 0.73938702 2.5 0 0 0
2436 1 144.687500 76.318489 2.500000 0.00000000 0.00000000 1.00000000 2.5 0 0 0
2437 1 145.937500 78.483552 2.500000 0.58307814 -0.33664032 0.73938702 2.5 0 0 0
2438 1 147.187500 80.648616 2.500000 0.86381072 -0.49872135 0.07147071 2.5 0 0 0
2439 1 148.437500 82.813679 2.500000 0.71656692 -0.41371011 -0.56158329 2.5 0 0 0
2440 1 149.687500 84.978743 2.500000 0.37518063 -0.21661064 -0.90128759 2.5 0 0 0
2441 1 150.937500 87.143806 2.500000 0.00000000 -0.00000000 -1.00000000 2.5 0 0 0
2442 1 152.187500 89.308870 2.500000 -0.37518063 0.21661064 -0.90128759 2.5 0 0 0
2443 1 153.437500 91.473933 2.500000 -0.71656692 0.41371011 -0.56158329 2.5 0 0 0
2444 1 154.687500 93.638997 2.500000 -0.86381072 0.49872135 0.07147071 2.5 0 0 0
2445 1 155.937500 95.804060 2.500000 -0.58307814 0.33664032 0.73938702 2.5 0 0 0
2446 1 157.187500 97.969124 2.500000 -0.00000000 -0.00000000 1.00000000 2.5 0 0 0
2447 1 158.437500 100.134187 2.500000 0.58307814 -0.33664032 0.73938702 2.5 0 0 0
2448 1 159.687500 102.299251 2.500000 0.86381072 -0.49872135 0.07147071 2.5 0 0 0
2449 1 160.937500 104.464314 2.500000 0.71656692 -0.41371011 -0.56158329 2.5 0 0 0
2450 1 162.187500 106.629378 2.500000 0.37518063 -0.21661064 -0.90128759 2.5 0 0 0
2451 1 163.437500 108.794441 2.500000 -0.00000000 0.00000000 -1.00000000 2.5 0 0 0
2452 1 164.687500 110.959505 2.500000 -0.37518063 0.21661064 -0.90128759 2.5 0 0 0
2453 1 165.937500 113.124568 2.500000 -0.71656692 0.41371011 -0.56158329 2.5 0 0 0
2454 1 167.187500 115.289632 2.500000 -0.86381072 0.49872135 0.07147071 2.5 0 0 0
2455 1 168.437500 117.454695 2.500000 -0.58307814 0.33664032 0.73938702 2.5 0 0 0
2456 1 169.687500 119.619759 2.500000 0.00000000 -0.00000000 1.00000000 2.5 0 0 0
2457 1 170.937500 121.784822 2.500000 0.58307814 -0.33664032 0.73938702 2.5 0 0 0
2458 1 172.187500 123.949886 2.500000 0.86381072 -0.49872135 0.07147071 2.5 0 0 0
2459 1 173.437500 126.114949 2.500000 0.71656692 -0.41371011 -0.56158329 2.5 0 0 0
2460 1 174.687500 128.280013 2.500000 0.37518063 -0.21661064 -0.90128759 2.5 0 0 0
2461 1 103.437500 0.541266 2.500000 0.00000000 0.43322128 -0.90128759 2.5 0 0 0
2462 1 104.687500 2.706329 2.500000 -0.36661923 0.63500314 -0.67997158 2.5 0 0 0
2463 1 105.937500 4.871393 2.500000 -0.63774350 0.75034112 -0.17398689 2.5 0 0 0
2464 1 107.187500 7.036456 2.500000 -0.59033226 0.63193078 0.50216662 2.5 0 0 0
2465 1 108.437500 9.201520 2.500000 -0.18242270 0.31596539 0.93106811 2.5 0 0 0
2466 1 109.687500 11.366583 2.500000 0.36484540 0.00000000 0.93106811 2.5 0 0 0
2467 1 110.937500 13.531647 2.500000 0.84243424 -0.19527735 0.50216662 2.5 0 0 0
2468 1 112.187500 15.696710 2.500000 0.96868622 -0.17713151 -0.17398689 2.5 0 0 0
2469 1 113.437500 17.861774 2.500000 0.73323847 0.00000000 -0.67997158 2.5 0 0 0
2470 1 114.687500 20.026837 2.500000 0.37518063 0.21661064 -0.90128759 2.5 0 0 0
2471 1 115.937500 22.191901 2.500000 0.00000000 0.43322128 -0.90128759 2.5 0 0 0
2472 1 117.187500 24.356964 2.500000 -0.36661923 0.63500314 -0.67997158 2.5 0 0 0
2473 1 118.437500 26.522028 2.500000 -0.63774350 0.75034112 -0.17398689 2.5 0 0 0
2474 1 119.687500 28.687092 2.500000 -0.59033226 0.63193078 0.50216662 2.5 0 0 0
2475 1 120.937500 30.852155 2.500000 -0.18242270 0.31596539 0.93106811 2.5 0 0 0
2476 1 122.187500 33.017219 2.500000 0.36484540 0.00000000 0.93106811 2.5 0 0 0
2477 1 123.437500 35.182282 2.500000 0.84243424 -0.19527735 0.50216662 2.5 0 0 0
2478 1 124.687500 37.347346 2.500000 0.96868622 -0.17713151 -0.17398689 2.5 0 0 0
2479 1 125.937500 39.512409 2.500000 0.73323847 0.00000000 -0.67997158 2.5 0 0 0
2480 1 127.187500 41.677473 2.500000 0.37518063 0.21661064 -0.90128759 2.5 0 0 0
2481 1 128.437500 43.842536 2.500000 0.00000000 0.43322128 -0.90128759 2.5 0 0 0
2482 1 129.687500 46.007600 2.500000 -0.36661923 0.63500314 -0.67997158 2.5 0 0 0
2483 1 130.937500 48.172663 2.500000 -0.63774350 0.75034112 -0.17398689 2.5 0 0 0
2484 1 132.187500 50.337727 2.500000 -0.59033226 0.63193078 0.50216662 2.5 0 0 0
2485 1 133.437500 52.502790 2.500000 -0.18242270 0.31596539 0.93106811 2.5 0 0 0
2486 1 134.687500 54.667854 2.500000 0.36484540 -0.00000000 0.93106811 2.5 0 0 0
2487 1 135.937500 56.832917 2.500000 0.84243424 -0.19527735 0.50216662 2.5 0 0 0
2488 1 137.187500 58.997981 2.500000 0.96868622 -0.17713151 -0.17398689 2.5 0 0 0
2489 1 138.437500 61.163044 2.500000 0.73323847 0.00000000 -0.67997158 2.5 0 0 0
2490 1 139.687500 63.328108 2.500000 0.37518063 0.21661064 -0.90128759 2.5 0 0 0
2491 1 140.937500 65.493171 2.500000 0.00000000 0.43322128 -0.90128759 2.5 0 0 0
2492 1 142.187500 67.658235 2.500000 -0.36661923 0.63500314 -0.67997158 2.5 0 0 0
2493 1 143.437500 69.823298 2.500000 -0.63774350 0.75034112 -0.17398689 2.5 0 0 0
2494 1 144.687500 71.988362 2.500000 -0.59033226 0.63193078 0.50216662 2.5 0 0 0
2495 1 145.937500 74.153425 2.500000 -0.18242270 0.31596539 0.93106811 2.5 0 0 0
2496 1 147.187500 76.318489 2.500000 0.36484540 0.00000000 0.93106811 2.5 0 0 0
2497 1 148.437500 78.483552 2.500000 0.84243424 -0.19527735 0.50216662 2.5 0 0 0
2498 1 149.687500 80.648616 2.500000 0.96868622 -0.17713151 -0.17398689 2.5 0 0 0
2499 1 150.937500 82.813679 2.500000 0.73323847 -0.00000000 -0.67997158 2.5 0 0 0
2500 1 152.187500 84.978743 2.500000 0.37518063 0.21661064 -0.90128759 2.5 0 0 0
2501 1 153.437500 87.143806 2.500000 0.00000000 0.43322128 -0.90128759 2.5 0 0 0
2502 1 154.687500 89.308870 2.500000 -0.36661923 0.63500314 -0.67997158 2.5 0 0 0
2503 1 155.937500 91.473933 2.500000 -0.63774350 0.75034112 -0.17398689 2.5 0 0 0
2504 1 157.187500 93.638997 2.500000 -0.59033226 0.63193078 0.50216662 2.5 0 0 0
2505 1 158.437500 95.804060 2.500000 -0.18242270 0.31596539 0.93106811 2.5 0 0 0
2506 1 159.687500 97.969124 2.500000 0.36484540 -0.00000000 0.93106811 2.5 0 0 0
2507 1 160.937500 100.134187 2.500000 0.84243424 -0.19527735 0.50216662 2.5 0 0 0
2508 1 162.187500 102.299251 2.500000 0.96868622 -0.17713151 -0.17398689 2.5 0 0 0
2509 1 163.437500 104.464314 2.500000 0.73323847 0.00000000 -0.67997158 2.5 0 0 0
2510 1 164.687500 106.629378 2.500000 0.37518063 0.21661064 -0.90128759 2.5 0 0 0
2511 1 165.937500 108.794441 2.500000 -0.00000000 0.43322128 -0.90128759 2.5 0 0 0
2512 1 167.187500 110.959505 2.500000 -0.36661923 0.63500314 -0.67997158 2.5 0 0 0
2513 1 168.437500 113.124568 2.500000 -0.63774350 0.75034112 -0.17398689 2.5 0 0 0
2514 1 169.687500 115.289632 2.500000 -0.59033226 0.63193078 0.50216662 2.5 0 0 0
2515 1 170.937500 117.454695 2.500000 -0.18242270 0.31596539 0.93106811 2.5 0 0 0
2516 1 172.187500 119.619759 2.500000 0.36484540 0.00000000 0.93106811 2.5 0 0 0
2517 1 173.437500 121.784822 2.500000 0.84243424 -0.19527735 0.50216662 2.5 0 0 0
2518 1 174.687500 123.949886 2.500000 0.96868622 -0.17713151 -0.17398689 2.5 0 0 0
2519 1 175.937500 126.114949 2.500000 0.73323847 0.00000000 -0.67997158 2.5 0 0 0
2520 1 177.187500 128.280013 2.500000 0.37518063 0.21661064 -0.90128759 2.5 0 0 0
2521 1 105.937500 0.541266 2.500000 0.00000000 0.82742021 -0.56158329 2.5 0 0 0
2522 1 107.187500 2.706329 2.500000 -0.33094272 0.92747263 -0.17398689 2.5 0 0 0
2523 1 108.437500 4.871393 2.500000 -0.45612652 0.79003431 0.40962714 2.5 0 0 0
2524 1 109.687500 7.036456 2.500000 -0.26773829 0.46373631 0.84455008 2.5 0 0 0
2525 1 110.937500 9.201520 2.500000 0.09844051 0.17050396 0.98042739 2.5 0 0 0
2526 1 112.187500 11.366583 2.500000 0.53547657 -0.00000000 0.84455008 2.5 0 0 0
2527 1 113.437500 13.531647 2.500000 0.91225304 0.00000000 0.40962714 2.5 0 0 0
2528 1 114.687500 15.696710 2.500000 0.96868622 0.17713151 -0.17398689 2.5 0 0 0
2529 1 115.937500 17.861774 2.500000 0.71656692 0.41371011 -0.56158329 2.5 0 0 0
2530 1 117.187500 20.026837 2.500000 0.36661923 0.63500314 -0.67997158 2.5 0 0 0
2531 1 118.437500 22.191901 2.500000 0.00000000 0.82742021 -0.56158329 2.5 0 0 0
2532 1 119.687500 24.356964 2.500000 -0.33094272 0.92747263 -0.17398689 2.5 0 0 0
2533 1 120.937500 26.522028 2.500000 -0.45612652 0.79003431 0.40962714 2.5 0 0 0
2534 1 122.187500 28.687092 2.500000 -0.26773829 0.46373631 0.84455008 2.5 0 0 0
2535 1 123.437500 30.852155 2.500000 0.09844051 0.17050396 0.98042739 2.5 0 0 0
2536 1 124.687500 33.017219 2.500000 0.53547657 -0.00000000 0.84455008 2.5 0 0 0
2537 1 125.937500 35.182282 2.500000 0.91225304 0.00000000 0.40962714 2.5 0 0 0
2538 1 127.187500 37.347346 2.500000 0.96868622 0.17713151 -0.17398689 2.5 0 0 0
2539 1 128.437500 39.512409 2.500000 0.71656692 0.41371011 -0.56158329 2.5 0 0 0
2540 1 129.687500 41.677473 2.500000 0.36661923 0.63500314 -0.67997158 2.5 0 0 0
2541 1 130.937500 43.842536 2.500000 0.00000000 0.82742021 -0.56158329 2.5 0 0 0
2542 1 132.187500 46.007600 2.500000 -0.33094272 0.92747263 -0.17398689 2.5 0 0 0
2543 1 133.437500 48.172663 2.500000 -0.45612652 0.79003431 0.40962714 2.5 0 0 0
2544 1 134.687500 50.337727 2.500000 -0.26773829 0.46373631 0.84455008 2.5 0 0 0
2545 1 135.937500 52.502790 2.500000 0.09844051 0.17050396 0.98042739 2.5 0 0 0
2546 1 137.187500 54.667854 2.500000 0.53547657 -0.00000000 0.84455008 2.5 0 0 0
2547 1 138.437500 56.832917 2.500000 0.91225304 0.00000000 0.40962714 2.5 0 0 0
2548 1 139.687500 58.997981 2.500000 0.96868622 0.17713151 -0.17398689 2.5 0 0 0
2549 1 140.937500 61.163044 2.500000 0.71656692 0.41371011 -0.56158329 2.5 0 0 0
2550 1 142.187500 63.328108 2.500000 0.36661923 0.63500314 -0.67997158 2.5 0 0 0
2551 1 143.437500 65.493171 2.500000 0.00000000 0.82742021 -0.56158329 2.5 0 0 0
2552 1 144.687500 67.658235 2.500000 -0.33094272 0.92747263 -0.17398689 2.5 0 0 0
2553 1 145.937500 69.823298 2.500000 -0.45612652 0.79003431 0.40962714 2.5 0 0 0
2554 1 147.187500 71.988362 2.500000 -0.26773829 0.46373631 0.84455008 2.5 0 0 0
2555 1 148.437500 74.153425 2.500000 0.09844051 0.17050396 0.98042739 2.5 0 0 0
2556 1 149.687500 76.318489 2.500000 0.53547657 0.00000000 0.84455008 2.5 0 0 0
2557 1 150.937500 78.483552 2.500000 0.91225304 -0.00000000 0.40962714 2.5 0 0 0
2558 1 152.187500 80.648616 2.500000 0.96868622 0.17713151 -0.17398689 2.5 0 0 0
2559 1 153.437500 82.813679 2.500000 0.71656692 0.41371011 -0.56158329 2.5 0 0 0
2560 1 154.687500 84.978743 2.500000 0.36661923 0.63500314 -0.67997158 2.5 0 0 0
2561 1 155.937500 87.143806 2.500000 0.00000000 0.82742021 -0.56158329 2.5 0 0 0
2562 1 157.187500 89.308870 2.500000 -0.33094272 0.92747263 -0.17398689 2.5 0 0 0
2563 1 158.437500 91.473933 2.500000 -0.45612652 0.79003431 0.40962714 2.5 0 0 0
2564 1 159.687500 93.638997 2.500000 -0.26773829 0.46373631 0.84455008 2.5 0 0 0
2565 1 160.937500 95.804060 2.500000 0.09844051 0.17050396 0.98042739 2.5 0 0 0
2566 1 162.187500 97.969124 2.500000 0.53547657 -0.00000000 0.84455008 2.5 0 0 0
2567 1 163.437500 100.134187 2.500000 0.91225304 0.00000000 0.40962714 2.5 0 0 0
2568 1 164.687500 102.299251 2.500000 0.96868622 0.17713151 -0.17398689 2.5 0 0 0
2569 1 165.937500 104.464314 2.500000 0.71656692 0.41371011 -0.56158329 2.5 0 0 0
2570 1 167.187500 106.629378 2.500000 0.36661923 0.63500314 -0.67997158 2.5 0 0 0
2571 1 168.437500 108.794441 2.500000 -0.00000000 0.82742021 -0.56158329 2.5 0 0 0
2572 1 169.687500 110.959505 2.500000 -0.33094272 0.92747263 -0.17398689 2.5 0 0 0
2573 1 170.937500 113.124568 2.500000 -0.45612652 0.79003431 0.40962714 2.5 0 0 0
2574 1 172.187500 115.289632 2.500000 -0.26773829 0.46373631 0.84455008 2.5 0 0 0
2575 1 173.437500 117.454695 2.500000 0.09844051 0.17050396 0.98042739 2.5 0 0 0
2576 1 174.687500 119.619759 2.500000 0.53547657 0.00000000 0.84455008 2.5 0 0 0
2577 1 175.937500 121.784822 2.500000 0.91225304 0.00000000 0.40962714 2.5 0 0 0
2578 1 177.187500 123.949886 2.500000 0.96868622 0.17713151 -0.17398689 2.5 0 0 0
2579 1 178.437500 126.114949 2.500000 0.71656692 0.41371011 -0.56158329 2.5 0 0 0
2580 1 179.687500 128.280013 2.500000 0.36661923 0.63500314 -0.67997158 2.5 0 0 0
2581 1 108.437500 0.541266 2.500000 0.00000000 0.99744270 0.07147071 2.5 0 0 0
2582 1 109.687500 2.706329 2.500000 -0.25210197 0.82720813 0.50216662 2.5 0 0 0
2583 1 110.937500 4.871393 2.500000 -0.26773829 0.46373631 0.84455008 2.5 0 0 0
2584 1 112.187500 7.036456 2.500000 -0.09262434 0.16043006 0.98269167 2.5 0 0 0
2585 1 113.437500 9.201520 2.500000 0.18524868 -0.00000000 0.98269167 2.5 0 0 0
2586 1 114.687500 11.366583 2.500000 0.53547657 -0.00000000 0.84455008 2.5 0 0 0
2587 1 115.937500 13.531647 2.500000 0.84243424 0.19527735 0.50216662 2.5 0 0 0
2588 1 117.187500 15.696710 2.500000 0.86381072 0.49872135 0.07147071 2.5 0 0 0
2589 1 118.437500 17.861774 2.500000 0.63774350 0.75034112 -0.17398689 2.5 0 0 0
2590 1 119.687500 20.026837 2.500000 0.33094272 0.92747263 -0.17398689 2.5 0 0 0
2591 1 120.937500 22.191901 2.500000 0.00000000 0.99744270 0.07147071 2.5 0 0 0
2592 1 122.187500 24.356964 2.500000 -0.25210197 0.82720813 0.50216662 2.5 0 0 0
2593 1 123.437500 26.522028 2.500000 -0.26773829 0.46373631 0.84455008 2.5 0 0 0
2594 1 124.687500 28.687092 2.500000 -0.09262434 0.16043006 0.98269167 2.5 0 0 0
2595 1 125.937500 30.852155 2.500000 0.18524868 -0.00000000 0.98269167 2.5 0 0 0
2596 1 127.187500 33.017219 2.500000 0.53547657 -0.00000000 0.84455008 2.5 0 0 0
2597 1 128.437500 35.182282 2.500000 0.84243424 0.19527735 0.50216662 2.5 0 0 0
2598 1 129.687500 37.347346 2.500000 0.86381072 0.49872135 0.07147071 2.5 0 0 0
2599 1 130.937500 39.512409 2.500000 0.63774350 0.75034112 -0.17398689 2.5 0 0 0
2600 1 132.187500 41.677473 2.500000 0.33094272 0.92747263 -0.17398689 2.5 0 0 0
2601 1 133.437500 43.842536 2.500000 0.00000000 0.99744270 0.07147071 2.5 0 0 0
2602 1 134.687500 46.007600 2.500000 -0.25210197 0.82720813 0.50216662 2.5 0 0 0
2603 1 135.937500 48.172663 2.500000 -0.26773829 0.46373631 0.84455008 2.5 0 0 0
2604 1 137.187500 50.337727 2.500000 -0.09262434 0.16043006 0.98269167 2.5 0 0 0
2605 1 138.437500 52.502790 2.500000 0.18524868 -0.00000000 0.98269167 2.5 0 0 0
2606 1 139.687500 54.667854 2.500000 0.53547657 0.00000000 0.84455008 2.5 0 0 0
2607 1 140.937500 56.832917 2.500000 0.84243424 0.19527735 0.50216662 2.5 0 0 0
2608 1 142.187500 58.997981 2.500000 0.86381072 0.49872135 0.07147071 2.5 0 0 0
2609 1 143.437500 61.163044 2.500000 0.63774350 0.75034112 -0.17398689 2.5 0 0 0
2610 1 144.687500 63.328108 2.500000 0.33094272 0.92747263 -0.17398689 2.5 0 0 0
2611 1 145.937500 65.493171 2.500000 0.00000000 0.99744270 0.07147071 2.5 0 0 0
2612 1 147.187500 67.658235 2.500000 -0.25210197 0.82720813 0.50216662 2.5 0 0 0
2613 1 148.437500 69.823298 2.500000 -0.26773829 0.46373631 0.84455008 2.5 0 0 0
2614 1 149.687500 71.988362 2.500000 -0.09262434 0.16043006 0.98269167 2.5 0 0 0
2615 1 150.937500 74.153425 2.500000 0.18524868 0.00000000 0.98269167 2.5 0 0 0
2616 1 152.187500 76.318489 2.500000 0.53547657 -0.00000000 0.84455008 2.5 0 0 0
2617 1 153.437500 78.483552 2.500000 0.84243424 0.19527735 0.50216662 2.5 0 0 0
2618 1 154.687500 80.648616 2.500000 0.86381072 0.49872135 0.07147071 2.5 0 0 0
2619 1 155.937500 82.813679 2.500000 0.63774350 0.75034112 -0.17398689 2.5 0 0 0
2620 1 157.187500 84.978743 2.500000 0.33094272 0.92747263 -0.17398689 2.5 0 0 0
2621 1 158.437500 87.143806 2.500000 0.00000000 0.99744270 0.07147071 2.5 0 0 0
2622 1 159.687500 89.308870 2.500000 -0.25210197 0.82720813 0.50216662 2.5 0 0 0
2623 1 160.937500 91.473933 2.500000 -0.26773829 0.46373631 0.84455008 2.5 0 0 0
2624 1 162.187500 93.638997 2.500000 -0.09262434 0.16043006 0.98269167 2.5 0 0 0
2625 1 163.437500 95.804060 2.500000 0.18524868 -0.00000000 0.98269167 2.5 0 0 0
2626 1 164.687500 97.969124 2.500000 0.53547657 0.00000000 0.84455008 2.5 0 0 0
2627 1 165.937500 100.134187 2.500000 0.84243424 0.19527735 0.50216662 2.5 0 0 0
2628 1 167.187500 102.299251 2.500000 0.86381072 0.49872135 0.07147071 2.5 0 0 0
2629 1 168.437500 104.464314 2.500000 0.63774350 0.75034112 -0.17398689 2.5 0 0 0
2630 1 169.687500 106.629378 2.500000 0.33094272 0.92747263 -0.17398689 2.5 0 0 0
2631 1 170.937500 108.794441 2.500000 -0.00000000 0.99744270 0.07147071 2.5 0 0 0
2632 1 172.187500 110.959505 2.500000 -0.25210197 0.82720813 0.50216662 2.5 0 0 0
2633 1 173.437500 113.124568 2.500000 -0.26773829 0.46373631 0.84455008 2.5 0 0 0
2634 1 174.687500 115.289632 2.500000 -0.09262434 0.16043006 0.98269167 2.5 0 0 0
2635 1 175.937500 117.454695 2.500000 0.18524868 -0.00000000 0.98269167 2.5 0 0 0
2636 1 177.187500 119.619759 2.500000 0.53547657 0.00000000 0.84455008 2.5 0 0 0
2637 1 178.437500 121.784822 2.500000 0.84243424 0.19527735 0.50216662 2.5 0 0 0
2638 1 179.687500 123.949886 2.500000 0.86381072 0.49872135 0.07147071 2.5 0 0 0
2639 1 180.937500 126.114949 2.500000 0.63774350 0.75034112 -0.17398689 2.5 0 0 0
2640 1 182.187500 128.280013 2.500000 0.33094272 0.92747263 -0.17398689 2.5 0 0 0
2641 1 110.937500 0.541266 2.500000 0.00000000 0.67328065 0.73938702 2.5 0 0 0
2642 1 112.187500 2.706329 2.500000 -0.18242270 0.31596539 0.93106811 2.5 0 0 0
2643 1 113.437500 4.871393 2.500000 -0.19688101 -0.00000000 0.98042739 2.5 0 0 0
2644 1 114.687500 7.036456 2.500000 -0.09262434 -0.16043006 0.98269167 2.5 0 0 0
2645 1 115.937500 9.201520 2.500000 0.09844051 -0.17050396 0.98042739 2.5 0 0 0
2646 1 117.187500 11.366583 2.500000 0.36484540 0.00000000 0.93106811 2.5 0 0 0
2647 1 118.437500 13.531647 2.500000 0.58307814 0.33664032 0.73938702 2.5 0 0 0
2648 1 119.687500 15.696710 2.500000 0.59033226 0.63193078 0.50216662 2.5 0 0 0
2649 1 120.937500 17.861774 2.500000 0.45612652 0.79003431 0.40962714 2.5 0 0 0
2650 1 122.187500 20.026837 2.500000 0.25210197 0.82720813 0.50216662 2.5 0 0 0
2651 1 123.437500 22.191901 2.500000 0.00000000 0.67328065 0.73938702 2.5 0 0 0
2652 1 124.687500 24.356964 2.500000 -0.18242270 0.31596539 0.93106811 2.5 0 0 0
2653 1 125.937500 26.522028 2.500000 -0.19688101 -0.00000000 0.98042739 2.5 0 0 0
2654 1 127.187500 28.687092 2.500000 -0.09262434 -0.16043006 0.98269167 2.5 0 0 0
2655 1 128.437500 30.852155 2.500000 0.09844051 -0.17050396 0.98042739 2.5 0 0 0
2656 1 129.687500 33.017219 2.500000 0.36484540 -0.00000000 0.93106811 2.5 0 0 0
2657 1 130.937500 35.182282 2.500000 0.58307814 0.33664032 0.73938702 2.5 0 0 0
2658 1 132.187500 37.347346 2.500000 0.59033226 0.63193078 0.50216662 2.5 0 0 0
2659 1 133.437500 39.512409 2.500000 0.45612652 0.79003431 0.40962714 2.5 0 0 0
2660 1 134.687500 41.677473 2.500000 0.25210197 0.82720813 0.50216662 2.5 0 0 0
2661 1 135.937500 43.842536 2.500000 0.00000000 0.67328065 0.73938702 2.5 0 0 0
2662 1 137.187500 46.007600 2.500000 -0.18242270 0.31596539 0.93106811 2.5 0 0 0
2663 1 138.437500 48.172663 2.500000 -0.19688101 -0.00000000 0.98042739 2.5 0 0 0
2664 1 139.687500 50.337727 2.500000 -0.09262434 -0.16043006 0.98269167 2.5 0 0 0
2665 1 140.937500 52.502790 2.500000 0.09844051 -0.17050396 0.98042739 2.5 0 0 0
2666 1 142.187500 54.667854 2.500000 0.36484540 0.00000000 0.93106811 2.5 0 0 0
2667 1 143.437500 56.832917 2.500000 0.58307814 0.33664032 0.73938702 2.5 0 0 0
2668 1 144.687500 58.997981 2.500000 0.59033226 0.63193078 0.50216662 2.5 0 0 0
2669 1 145.937500 61.163044 2.500000 0.45612652 0.79003431 0.40962714 2.5 0 0 0
2670 1 147.187500 63.328108 2.500000 0.25210197 0.82720813 0.50216662 2.5 0 0 0
2671 1 148.437500 65.493171 2.500000 0.00000000 0.67328065 0.73938702 2.5 0 0 0
2672 1 149.687500 67.658235 2.500000 -0.18242270 0.31596539 0.93106811 2.5 0 0 0
2673 1 150.937500 69.823298 2.500000 -0.19688101 0.00000000 0.98042739 2.5 0 0 0
2674 1 152.187500 71.988362 2.500000 -0.09262434 -0.16043006 0.98269167 2.5 0 0 0
2675 1 153.437500 74.153425 2.500000 0.09844051 -0.17050396 0.98042739 2.5 0 0 0
2676 1 154.687500 76.318489 2.500000 0.36484540 -0.00000000 0.93106811 2.5 0 0 0
2677 1 155.937500 78.483552 2.500000 0.58307814 0.33664032 0.73938702 2.5 0 0 0
2678 1 157.187500 80.648616 2.500000 0.59033226 0.63193078 0.50216662 2.5 0 0 0
2679 1 158.437500 82.813679 2.500000 0.45612652 0.79003431 0.40962714 2.5 0 0 0
2680 1 159.687500 84.978743 2.500000 0.25210197 0.82720813 0.50216662 2.5 0 0 0
2681 1 160.937500 87.143806 2.500000 0.00000000 0.67328065 0.73938702 2.5 0 0 0
2682 1 162.187500 89.308870 2.500000 -0.18242270 0.31596539 0.93106811 2.5 0 0 0
2683 1 163.437500 91.473933 2.500000 -0.19688101 -0.00000000 0.98042739 2.5 0 0 0
2684 1 164.687500 93.638997 2.500000 -0.09262434 -0.16043006 0.98269167 2.5 0 0 0
2685 1 165.937500 95.804060 2.500000 0.09844051 -0.17050396 0.98042739 2.5 0 0 0
2686 1 167.187500 97.969124 2.500000 0.36484540 0.00000000 0.93106811 2.5 0 0 0
2687 1 168.437500 100.134187 2.500000 0.58307814 0.33664032 0.73938702 2.5 0 0 0
2688 1 169.687500 102.299251 2.500000 0.59033226 0.63193078 0.50216662 2.5 0 0 0
2689 1 170.937500 104.464314 2.500000 0.45612652 0.79003431 0.40962714 2.5 0 0 0
2690 1 172.187500 106.629378 2.500000 0.25210197 0.82720813 0.50216662 2.5 0 0 0
2691 1 173.437500 108.794441 2.500000 0.00000000 0.67328065 0.73938702 2.5 0 0 0
2692 1 174.687500 110.959505 2.500000 -0.18242270 0.31596539 0.93106811 2.5 0 0 0
2693 1 175.937500 113.124568 2.500000 -0.19688101 -0.00000000 0.98042739 2.5 0 0 0
2694 1 177.187500 115.289632 2.500000 -0.09262434 -0.16043006 0.98269167 2.5 0 0 0
2695 1 178.437500 117.454695 2.500000 0.09844051 -0.17050396 0.98042739 2.5 0 0 0
2696 1 179.687500 119.619759 2.500000 0.36484540 0.00000000 0.93106811 2.5 0 0 0
2697 1 180.937500 121.784822 2.500000 0.58307814 0.33664032 0.73938702 2.5 0 0 0
2698 1 182.187500 123.949886 2.500000 0.59033226 0.63193078 0.50216662 2.5 0 0 0
2699 1 183.437500 126.114949 2.500000 0.45612652 0.79003431 0.40962714 2.5 0 0 0
2700 1 184.687500 128.280013 2.500000 0.25210197 0.82720813 0.50216662 2.5 0 0 0
2701 1 113.437500 0.541266 2.500000 0.00000000 -0.00000000 1.00000000 2.5 0 0 0
2702 1 114.687500 2.706329 2.500000 -0.18242270 -0.31596539 0.93106811 2.5 0 0 0
2703 1 115.937500 4.871393 2.500000 -0.26773829 -0.46373631 0.84455008 2.5 0 0 0
2704 1 117.187500 7.036456 2.500000 -0.26773829 -0.46373631 0.84455008 2.5 0 0 0
2705 1 118.437500 9.201520 2.500000 -0.18242270 -0.31596539 0.93106811 2.5 0 0 0
2706 1 119.687500 11.366583 2.500000 -0.00000000 -0.00000000 1.00000000 2.5 0 0 0
2707 1 120.937500 13.531647 2.500000 0.18242270 0.31596539 0.93106811 2.5 0 0 0
2708 1 122.187500 15.696710 2.500000 0.26773829 0.46373631 0.84455008 2.5 0 0 0
2709 1 123.437500 17.861774 2.500000 0.26773829 0.46373631 0.84455008 2.5 0 0 0
2710 1 124.687500 20.026837 2.500000 0.18242270 0.31596539 0.93106811 2.5 0 0 0
2711 1 125.937500 22.191901 2.500000 0.00000000 -0.00000000 1.00000000 2.5 0 0 0
2712 1 127.187500 24.356964 2.500000 -0.18242270 -0.31596539 0.93106811 2.5 0 0 0
2713 1 128.437500 26.522028 2.500000 -0.26773829 -0.46373631 0.84455008 2.5 0 0 0
2714 1 129.687500 28.687092 2.500000 -0.26773829 -0.46373631 0.84455008 2.5 0 0 0
2715 1 130.937500 30.852155 2.500000 -0.18242270 -0.31596539 0.93106811 2.5 0 0 0
2716 1 132.187500 33.017219 2.500000 -0.00000000 -0.00000000 1.00000000 2.5 0 0 0
2717 1 133.437500 35.182282 2.500000 0.18242270 0.31596539 0.93106811 2.5 0 0 0
2718 1 134.687500 37.347346 2.500000 0.26773829 0.46373631 0.84455008 2.5 0 0 0
2719 1 135.937500 39.512409 2.500000 0.26773829 0.46373631 0.84455008 2.5 0 0 0
2720 1 137.187500 41.677473 2.500000 0.18242270 0.31596539 0.93106811 2.5 0 0 0
2721 1 138.437500 43.842536 2.500000 0.00000000 -0.00000000 1.00000000 2.5 0 0 0
2722 1 139.687500 46.007600 2.500000 -0.18242270 -0.31596539 0.93106811 2.5 0 0 0
2723 1 140.937500 48.172663 2.500000 -0.26773829 -0.46373631 0.84455008 2.5 0 0 0
2724 1 142.187500 50.337727 2.500000 -0.26773829 -0.46373631 0.84455008 2.5 0 0 0
2725 1 143.437500 52.502790 2.500000 -0.18242270 -0.31596539 0.93106811 2.5 0 0 0
2726 1 144.687500 54.667854 2.500000 -0.00000000 0.00000000 1.00000000 2.5 0 0 0
2727 1 145.937500 56.832917 2.500000 0.18242270 0.31596539 0.93106811 2.5 0 0 0
2728 1 147.187500 58.997981 2.500000 0.26773829 0.46373631 0.84455008 2.5 0 0 0
2729 1 148.437500 61.163044 2.500000 0.26773829 0.46373631 0.84455008 2.5 0 0 0
2730 1 149.687500 63.328108 2.500000 0.18242270 0.31596539 0.93106811 2.5 0 0 0
2731 1 150.937500 65.493171 2.500000 -0.00000000 0.00000000 1.00000000 2.5 0 0 0
2732 1 152.187500 67.658235 2.500000 -0.18242270 -0.31596539 0.93106811 2.5 0 0 0
2733 1 153.437500 69.823298 2.500000 -0.26773829 -0.46373631 0.84455008 2.5 0 0 0
2734 1 154.687500 71.988362 2.500000 -0.26773829 -0.46373631 0.84455008 2.5 0 0 0
2735 1 155.937500 74.153425 2.500000 -0.18242270 -0.31596539 0.93106811 2.5 0 0 0
2736 1 157.187500 76.318489 2.500000 -0.00000000 -0.00000000 1.00000000 2.5 0 0 0
2737 1 158.437500 78.483552 2.500000 0.18242270 0.31596539 0.93106811 2.5 0 0 0
2738 1 159.687500 80.648616 2.500000 0.26773829 0.46373631 0.84455008 2.5 0 0 0
2739 1 160.937500 82.813679 2.500000 0.26773829 0.46373631 0.84455008 2.5 0 0 0
2740 1 162.187500 84.978743 2.500000 0.18242270 0.31596539 0.93106811 2.5 0 0 0
2741 1 163.437500 87.143806 2.500000 0.00000000 -0.00000000 1.00000000 2.5 0 0 0
2742 1 164.687500 89.308870 2.500000 -0.18242270 -0.31596539 0.93106811 2.5 0 0 0
2743 1 165.937500 91.473933 2.500000 -0.26773829 -0.46373631 0.84455008 2.5 0 0 0
2744 1 167.187500 93.638997 2.500000 -0.26773829 -0.46373631 0.84455008 2.5 0 0 0
2745 1 168.437500 95.804060 2.500000 -0.18242270 -0.31596539 0.93106811 2.5 0 0 0
2746 1 169.687500 97.969124 2.500000 -0.00000000 0.00000000 1.00000000 2.5 0 0 0
2747 1 170.937500 100.134187 2.500000 0.18242270 0.31596539 0.93106811 2.5 0 0 0
2748 1 172.187500 102.299251 2.500000 0.26773829 0.46373631 0.84455008 2.5 0 0 0
2749 1 173.437500 104.464314 2.500000 0.26773829 0.46373631 0.84455008 2.5 0 0 0
2750 1 174.687500 106.629378 2.500000 0.18242270 0.31596539 0.93106811 2.5 0 0 0
2751 1 175.937500 108.794441 2.500000 0.00000000 -0.00000000 1.00000000 2.5 0 0 0
2752 1 177.187500 110.959505 2.500000 -0.18242270 -0.31596539 0.93106811 2.5 0 0 0
2753 1 178.437500 113.124568 2.500000 -0.26773829 -0.46373631 0.84455008 2.5 0 0 0
2754 1 179.687500 115.289632 2.500000 -0.26773829 -0.46373631 0.84455008 2.5 0 0 0
2755 1 180.937500 117.454695 2.500000 -0.18242270 -0.31596539 0.93106811 2.5 0 0 0
2756 1 182.187500 119.619759 2.500000 0.00000000 -0.00000000 1.00000000 2.5 0 0 0
2757 1 183.437500 121.784822 2.500000 0.18242270 0.31596539 0.93106811 2.5 0 0 0
2758 1 184.687500 123.949886 2.500000 0.26773829 0.46373631 0.84455008 2.5 0 0 0
2759 1 185.937500 126.114949 2.500000 0.26773829 0.46373631 0.84455008 2.5 0 0 0
2760 1 187.187500 128.280013 2.500000 0.18242270 0.31596539 0.93106811 2.5 0 0 0
2761 1 115.937500 0.541266 2.500000 0.00000000 -0.67328065 0.73938702 2.5 0 0 0
2762 1 117.187500 2.706329 2.500000 -0.25210197 -0.82720813 0.50216662 2.5 0 0 0
2763 1 118.437500 4.871393 2.500000 -0.45612652 -0.79003431 0.40962714 2.5 0 0 0
2764 1 119.687500 7.036456 2.500000 -0.59033226 -0.63193078 0.50216662 2.5 0 0 0
2765 1 120.937500 9.201520 2.500000 -0.58307814 -0.33664032 0.73938702 2.5 0 0 0
2766 1 122.187500 11.366583 2.500000 -0.36484540 0.00000000 0.93106811 2.5 0 0 0
2767 1 123.437500 13.531647 2.500000 -0.09844051 0.17050396 0.98042739 2.5 0 0 0
2768 1 124.687500 15.696710 2.500000 0.09262434 0.16043006 0.98269167 2.5 0 0 0
2769 1 125.937500 17.861774 2.500000 0.19688101 -0.00000000 0.98042739 2.5 0 0 0
2770 1 127.187500 20.026837 2.500000 0.18242270 -0.31596539 0.93106811 2.5 0 0 0
2771 1 128.437500 22.191901 2.500000 -0.00000000 -0.67328065 0.73938702 2.5 0 0 0
2772 1 129.687500 24.356964 2.500000 -0.25210197 -0.82720813 0.50216662 2.5 0 0 0
2773 1 130.937500 26.522028 2.500000 -0.45612652 -0.79003431 0.40962714 2.5 0 0 0
2774 1 132.187500 28.687092 2.500000 -0.59033226 -0.63193078 0.50216662 2.5 0 0 0
2775 1 133.437500 30.852155 2.500000 -0.58307814 -0.33664032 0.73938702 2.5 0 0 0
2776 1 134.687500 33.017219 2.500000 -0.36484540 -0.00000000 0.93106811 2.5 0 0 0
2777 1 135.937500 35.182282 2.500000 -0.09844051 0.17050396 0.98042739 2.5 0 0 0
2778 1 137.187500 37.347346 2.500000 0.09262434 0.16043006 0.98269167 2.5 0 0 0
2779 1 138.437500 39.512409 2.500000 0.19688101 -0.00000000 0.98042739 2.5 0 0 0
2780 1 139.687500 41.677473 2.500000 0.18242270 -0.31596539 0.93106811 2.5 0 0 0
2781 1 140.937500 43.842536 2.500000 0.00000000 -0.67328065 0.73938702 2.5 0 0 0
2782 1 142.187500 46.007600 2.500000 -0.25210197 -0.82720813 0.50216662 2.5 0 0 0
2783 1 143.437500 48.172663 2.500000 -0.45612652 -0.79003431 0.40962714 2.5 0 0 0
2784 1 144.687500 50.337727 2.500000 -0.59033226 -0.63193078 0.50216662 2.5 0 0 0
2785 1 145.937500 52.502790 2.500000 -0.58307814 -0.33664032 0.73938702 2.5 0 0 0
2786 1 147.187500 54.667854 2.500000 -0.36484540 0.00000000 0.93106811 2.5 0 0 0
2787 1 148.437500 56.832917 2.500000 -0.09844051 0.17050396 0.98042739 2.5 0 0 0
2788 1 149.687500 58.997981 2.500000 0.09262434 0.16043006 0.98269167 2.5 0 0 0
2789 1 150.937500 61.163044 2.500000 0.19688101 0.00000000 0.98042739 2.5 0 0 0
2790 1 152.187500 63.328108 2.500000 0.18242270 -0.31596539 0.93106811 2.5 0 0 0
2791 1 153.437500 65.493171 2.500000 -0.00000000 -0.67328065 0.73938702 2.5 0 0 0
2792 1 154.687500 67.658235 2.500000 -0.25210197 -0.82720813 0.50216662 2.5 0 0 0
2793 1 155.937500 69.823298 2.500000 -0.45612652 -0.79003431 0.40962714 2.5 0 0 0
2794 1 157.187500 71.988362 2.500000 -0.59033226 -0.63193078 0.50216662 2.5 0 0 0
2795 1 158.437500 74.153425 2.500000 -0.58307814 -0.33664032 0.73938702 2.5 0 0 0
2796 1 159.687500 76.318489 2.500000 -0.36484540 -0.00000000 0.93106811 2.5 0 0 0
2797 1 160.937500 78.483552 2.500000 -0.09844051 0.17050396 0.98042739 2.5 0 0 0
2798 1 162.187500 80.648616 2.500000 0.09262434 0.16043006 0.98269167 2.5 0 0 0
2799 1 163.437500 82.813679 2.500000 0.19688101 -0.00000000 0.98042739 2.5 0 0 0
2800 1 164.687500 84.978743 2.500000 0.18242270 -0.31596539 0.93106811 2.5 0 0 0
2801 1 165.937500 87.143806 2.500000 0.00000000 -0.67328065 0.73938702 2.5 0 0 0
2802 1 167.187500 89.308870 2.500000 -0.25210197 -0.82720813 0.50216662 2.5 0 0 0
2803 1 168.437500 91.473933 2.500000 -0.45612652 -0.79003431 0.40962714 2.5 0 0 0
2804 1 169.687500 93.638997 2.500000 -0.59033226 -0.63193078 0.50216662 2.5 0 0 0
2805 1 170.937500 95.804060 2.500000 -0.58307814 -0.33664032 0.73938702 2.5 0 0 0
2806 1 172.187500 97.969124 2.500000 -0.36484540 0.00000000 0.93106811 2.5 0 0 0
2807 1 173.437500 100.134187 2.500000 -0.09844051 0.17050396 0.98042739 2.5 0 0 0
2808 1 174.687500 102.299251 2.500000 0.09262434 0.16043006 0.98269167 2.5 0 0 0
2809 1 175.937500 104.464314 2.500000 0.19688101 -0.00000000 0.98042739 2.5 0 0 0
2810 1 177.187500 106.629378 2.500000 0.18242270 -0.31596539 0.93106811 2.5 0 0 0
2811 1 178.437500 108.794441 2.500000 0.00000000 -0.67328065 0.73938702 2.5 0 0 0
2812 1 179.687500 110.959505 2.500000 -0.25210197 -0.82720813 0.50216662 2.5 0 0 0
2813 1 180.937500 113.124568 2.500000 -0.45612652 -0.79003431 0.40962714 2.5 0 0 0
2814 1 182.187500 115.289632 2.500000 -0.59033226 -0.63193078 0.50216662 2.5 0 0 0
2815 1 183.437500 117.454695 2.500000 -0.58307814 -0.33664032 0.73938702 2.5 0 0 0
2816 1 184.687500 119.619759 2.500000 -0.36484540 -0.00000000 0.93106811 2.5 0 0 0
2817 1 185.937500 121.784822 2.500000 -0.09844051 0.17050396 0.98042739 2.5 0 0 0
2818 1 187.187500 123.949886 2.500000 0.09262434 0.16043006 0.98269167 2.5 0 0 0
2819 1 188.437500 126.114949 2.500000 0.19688101 0.00000000 0.98042739 2.5 0 0 0
2820 1 189.687500 128.280013 2.500000 0.18242270 -0.31596539 0.93106811 2.5 0 0 0
2821 1 118.437500 0.541266 2.500000 0.00000000 -0.99744270 0.07147071 2.5 0 0 0
2822 1 119.687500 2.706329 2.500000 -0.33094272 -0.92747263 -0.17398689 2.5 0 0 0
2823 1 120.937500 4.871393 2.500000 -0.63774350 -0.75034112 -0.17398689 2.5 0 0 0
2824 1 122.187500 7.036456 2.500000 -0.86381072 -0.49872135 0.07147071 2.5 0 0 0
2825 1 123.437500 9.201520 2.500000 -0.84243424 -0.19527735 0.50216662 2.5 0 0 0
2826 1 124.687500 11.366583 2.500000 -0.53547657 -0.00000000 0.84455008 2.5 0 0 0
2827 1 125.937500 13.531647 2.500000 -0.18524868 -0.00000000 0.98269167 2.5 0 0 0
2828 1 127.187500 15.696710 2.500000 0.09262434 -0.16043006 0.98269167 2.5 0 0 0
2829 1 128.437500 17.861774 2.500000 0.26773829 -0.46373631 0.84455008 2.5 0 0 0
2830 1 129.687500 20.026837 2.500000 0.25210197 -0.82720813 0.50216662 2.5 0 0 0
2831 1 130.937500 22.191901 2.500000 0.00000000 -0.99744270 0.07147071 2.5 0 0 0
2832 1 132.187500 24.356964 2.500000 -0.33094272 -0.92747263 -0.17398689 2.5 0 0 0
2833 1 133.437500 26.522028 2.500000 -0.63774350 -0.75034112 -0.17398689 2.5 0 0 0
2834 1 134.687500 28.687092 2.500000 -0.86381072 -0.49872135 0.07147071 2.5 0 0 0
2835 1 135.937500 30.852155 2.500000 -0.84243424 -0.19527735 0.50216662 2.5 0 0 0
2836 1 137.187500 33.017219 2.500000 -0.53547657 -0.00000000 0.84455008 2.5 0 0 0
2837 1 138.437500 35.182282 2.500000 -0.18524868 -0.00000000 0.98269167 2.5 0 0 0
2838 1 139.687500 37.347346 2.500000 0.09262434 -0.16043006 0.98269167 2.5 0 0 0
2839 1 140.937500 39.512409 2.500000 0.26773829 -0.46373631 0.84455008 2.5 0 0 0
2840 1 142.187500 41.677473 2.500000 0.25210197 -0.82720813 0.50216662 2.5 0 0 0
2841 1 143.437500 43.842536 2.500000 0.00000000 -0.99744270 0.07147071 2.5 0 0 0
2842 1 144.687500 46.007600 2.500000 -0.33094272 -0.92747263 -0.17398689 2.5 0 0 0
2843 1 145.937500 48.172663 2.500000 -0.63774350 -0.75034112 -0.17398689 2.5 0 0 0
2844 1 147.187500 50.337727 2.500000 -0.86381072 -0.49872135 0.07147071 2.5 0 0 0
2845 1 148.437500 52.502790 2.500000 -0.84243424 -0.19527735 0.50216662 2.5 0 0 0
2846 1 149.687500 54.667854 2.500000 -0.53547657 0.00000000 0.84455008 2.5 0 0 0
2847 1 150.937500 56.832917 2.500000 -0.18524868 -0.00000000 0.98269167 2.5 0 0 0
2848 1 152.187500 58.997981 2.500000 0.09262434 -0.16043006 0.98269167 2.5 0 0 0
2849 1 153.437500 61.163044 2.500000 0.26773829 -0.46373631 0.84455008 2.5 0 0 0
2850 1 154.687500 63.328108 2.500000 0.25210197 -0.82720813 0.50216662 2.5 0 0 0
2851 1 155.937500 65.493171 2.500000 0.00000000 -0.99744270 0.07147071 2.5 0 0 0
2852 1 157.187500 67.658235 2.500000 -0.33094272 -0.92747263 -0.17398689 2.5 0 0 0
2853 1 158.437500 69.823298 2.500000 -0.63774350 -0.75034112 -0.17398689 2.5 0 0 0
2854 1 159.687500 71.988362 2.500000 -0.86381072 -0.49872135 0.07147071 2.5 0 0 0
2855 1 160.937500 74.153425 2.500000 -0.84243424 -0.19527735 0.50216662 2.5 0 0 0
2856 1 162.187500 76.318489 2.500000 -0.53547657 -0.00000000 0.84455008 2.5 0 0 0
2857 1 163.437500 78.483552 2.500000 -0.18524868 -0.00000000 0.98269167 2.5 0 0 0
2858 1 164.687500 80.648616 2.500000 0.09262434 -0.16043006 0.98269167 2.5 0 0 0
2859 1 165.937500 82.813679 2.500000 0.26773829 -0.46373631 0.84455008 2.5 0 0 0
2860 1 167.187500 84.978743 2.500000 0.25210197 -0.82720813 0.50216662 2.5 0 0 0
2861 1 168.437500 87.143806 2.500000 0.00000000 -0.99744270 0.07147071 2.5 0 0 0
2862 1 169.687500 89.308870 2.500000 -0.33094272 -0.92747263 -0.17398689 2.5 0 0 0
2863 1 170.937500 91.473933 2.500000 -0.63774350 -0.75034112 -0.17398689 2.5 0 0 0
2864 1 172.187500 93.638997 2.500000 -0.86381072 -0.49872135 0.07147071 2.5 0 0 0
2865 1 173.437500 95.804060 2.500000 -0.84243424 -0.19527735 0.50216662 2.5 0 0 0
2866 1 174.687500 97.969124 2.500000 -0.53547657 0.00000000 0.84455008 2.5 0 0 0
2867 1 175.937500 100.134187 2.500000 -0.18524868 -0.00000000 0.98269167 2.5 0 0 0
2868 1 177.187500 102.299251 2.500000 0.09262434 -0.16043006 0.98269167 2.5 0 0 0
2869 1 178.437500 104.464314 2.500000 0.26773829 -0.46373631 0.84455008 2.5 0 0 0
2870 1 179.687500 106.629378 2.500000 0.25210197 -0.82720813 0.50216662 2.5 0 0 0
2871 1 180.937500 108.794441 2.500000 -0.00000000 -0.99744270 0.07147071 2.5 0 0 0
2872 1 182.187500 110.959505 2.500000 -0.33094272 -0.92747263 -0.17398689 2.5 0 0 0
2873 1 183.437500 113.124568 2.500000 -0.63774350 -0.75034112 -0.17398689 2.5 0 0 0
2874 1 184.687500 115.289632 2.500000 -0.86381072 -0.49872135 0.07147071 2.5 0 0 0
2875 1 185.937500 117.454695 2.500000 -0.84243424 -0.19527735 0.50216662 2.5 0 0 0
2876 1 187.187500 119.619759 2.500000 -0.53547657 0.00000000 0.84455008 2.5 0 0 0
2877 1 188.437500 121.784822 2.500000 -0.18524868 -0.00000000 0.98269167 2.5 0 0 0
2878 1 189.687500 123.949886 2.500000 0.09262434 -0.16043006 0.98269167 2.5 0 0 0
2879 1 190.937500 126.114949 2.500000 0.26773829 -0.46373631 0.84455008 2.5 0 0 0
2880 1 192.187500 128.280013 2.500000 0.25210197 -0.82720813 0.50216662 2.5 0 0 0
2881 1 120.937500 0.541266 2.500000 0.00000000 -0.82742021 -0.56158329 2.5 0 0 0
2882 1 122.187500 2.706329 2.500000 -0.36661923 -0.63500314 -0.67997158 2.5 0 0 0
2883 1 123.437500 4.871393 2.500000 -0.71656692 -0.41371011 -0.56158329 2.5 0 0 0
2884 1 124.687500 7.036456 2.500000 -0.96868622 -0.17713151 -0.17398689 2.5 0 0 0
2885 1 125.937500 9.201520 2.500000 -0.91225304 0.00000000 0.40962714 2.5 0 0 0
2886 1 127.187500 11.366583 2.500000 -0.53547657 -0.00000000 0.84455008 2.5 0 0 0
2887 1 128.437500 13.531647 2.500000 -0.09844051 -0.17050396 0.98042739 2.5 0 0 0
2888 1 129.687500 15.696710 2.500000 0.26773829 -0.46373631 0.84455008 2.5 0 0 0
2889 1 130.937500 17.861774 2.500000 0.45612652 -0.79003431 0.40962714 2.5 0 0 0
2890 1 132.187500 20.026837 2.500000 0.33094272 -0.92747263 -0.17398689 2.5 0 0 0
2891 1 133.437500 22.191901 2.500000 -0.00000000 -0.82742021 -0.56158329 2.5 0 0 0
2892 1 134.687500 24.356964 2.500000 -0.36661923 -0.63500314 -0.67997158 2.5 0 0 0
2893 1 135.937500 26.522028 2.500000 -0.71656692 -0.41371011 -0.56158329 2.5 0 0 0
2894 1 137.187500 28.687092 2.500000 -0.96868622 -0.17713151 -0.17398689 2.5 0 0 0
2895 1 138.437500 30.852155 2.500000 -0.91225304 0.00000000 0.40962714 2.5 0 0 0
2896 1 139.687500 33.017219 2.500000 -0.53547657 0.00000000 0.84455008 2.5 0 0 0
2897 1 140.937500 35.182282 2.500000 -0.09844051 -0.17050396 0.98042739 2.5 0 0 0
2898 1 142.187500 37.347346 2.500000 0.26773829 -0.46373631 0.84455008 2.5 0 0 0
2899 1 143.437500 39.512409 2.500000 0.45612652 -0.79003431 0.40962714 2.5 0 0 0
2900 1 144.687500 41.677473 2.500000 0.33094272 -0.92747263 -0.17398689 2.5 0 0 0
2901 1 145.937500 43.842536 2.500000 0.00000000 -0.82742021 -0.56158329 2.5 0 0 0
2902 1 147.187500 46.007600 2.500000 -0.36661923 -0.63500314 -0.67997158 2.5 0 0 0
2903 1 148.437500 48.172663 2.500000 -0.71656692 -0.41371011 -0.56158329 2.5 0 0 0
2904 1 149.687500 50.337727 2.500000 -0.96868622 -0.17713151 -0.17398689 2.5 0 0 0
2905 1 150.937500 52.502790 2.500000 -0.91225304 -0.00000000 0.40962714 2.5 0 0 0
2906 1 152.187500 54.667854 2.500000 -0.53547657 -0.00000000 0.84455008 2.5 0 0 0
2907 1 153.437500 56.832917 2.500000 -0.09844051 -0.17050396 0.98042739 2.5 0 0 0
2908 1 154.687500 58.997981 2.500000 0.26773829 -0.46373631 0.84455008 2.5 0 0 0
2909 1 155.937500 61.163044 2.500000 0.45612652 -0.79003431 0.40962714 2.5 0 0 0
2910 1 157.187500 63.328108 2.500000 0.33094272 -0.92747263 -0.17398689 2.5 0 0 0
2911 1 158.437500 65.493171 2.500000 0.00000000 -0.82742021 -0.56158329 2.5 0 0 0
2912 1 159.687500 67.658235 2.500000 -0.36661923 -0.63500314 -0.67997158 2.5 0 0 0
2913 1 160.937500 69.823298 2.500000 -0.71656692 -0.41371011 -0.56158329 2.5 0 0 0
2914 1 162.187500 71.988362 2.500000 -0.96868622 -0.17713151 -0.17398689 2.5 0 0 0
2915 1 163.437500 74.153425 2.500000 -0.91225304 0.00000000 0.40962714 2.5 0 0 0
2916 1 164.687500 76.318489 2.500000 -0.53547657 0.00000000 0.84455008 2.5 0 0 0
2917 1 165.937500 78.483552 2.500000 -0.09844051 -0.17050396 0.98042739 2.5 0 0 0
2918 1 167.187500 80.648616 2.500000 0.26773829 -0.46373631 0.84455008 2.5 0 0 0
2919 1 168.437500 82.813679 2.500000 0.45612652 -0.79003431 0.40962714 2.5 0 0 0
2920 1 169.687500 84.978743 2.500000 0.33094272 -0.92747263 -0.17398689 2.5 0 0 0
2921 1 170.937500 87.143806 2.500000 0.00000000 -0.82742021 -0.56158329 2.5 0 0 0
2922 1 172.187500 89.308870 2.500000 -0.36661923 -0.63500314 -0.67997158 2.5 0 0 0
2923 1 173.437500 91.473933 2.500000 -0.71656692 -0.41371011 -0.56158329 2.5 0 0 0
2924 1 174.687500 93.638997 2.500000 -0.96868622 -0.17713151 -0.17398689 2.5 0 0 0
2925 1 175.937500 95.804060 2.500000 -0.91225304 0.00000000 0.40962714 2.5 0 0 0
2926 1 177.187500 97.969124 2.500000 -0.53547657 -0.00000000 0.84455008 2.5 0 0 0
2927 1 178.437500 100.134187 2.500000 -0.09844051 -0.17050396 0.98042739 2.5 0 0 0
2928 1 179.687500 102.299251 2.500000 0.26773829 -0.46373631 0.84455008 2.5 0 0 0
2929 1 180.937500 104.464314 2.500000 0.45612652 -0.79003431 0.40962714 2.5 0 0 0
2930 1 182.187500 106.629378 2.500000 0.33094272 -0.92747263 -0.17398689 2.5 0 0 0
2931 1 183.437500 108.794441 2.500000 -0.00000000 -0.82742021 -0.56158329 2.5 0 0 0
2932 1 184.687500 110.959505 2.500000 -0.36661923 -0.63500314 -0.67997158 2.5 0 0 0
2933 1 185.937500 113.124568 2.500000 -0.71656692 -0.41371011 -0.56158329 2.5 0 0 0
2934 1 187.187500 115.289632 2.500000 -0.96868622 -0.17713151 -0.17398689 2.5 0 0 0
2935 1 188.437500 117.454695 2.500000 -0.91225304 0.00000000 0.40962714 2.5 0 0 0
2936 1 189.687500 119.619759 2.500000 -0.53547657 -0.00000000 0.84455008 2.5 0 0 0
2937 1 190.937500 121.784822 2.500000 -0.09844051 -0.17050396 0.98042739 2.5 0 0 0
2938 1 192.187500 123.949886 2.500000 0.26773829 -0.46373631 0.84455008 2.5 0 0 0
2939 1 193.437500 126.114949 2.500000 0.45612652 -0.79003431 0.40962714 2.5 0 0 0
2940 1 194.687500 128.280013 2.500000 0.33094272 -0.92747263 -0.17398689 2.5 0 0 0
2941 1 123.437500 0.541266 2.500000 0.00000000 -0.43322128 -0.90128759 2.5 0 0 0
2942 1 124.687500 2.706329 2.500000 -0.37518063 -0.21661064 -0.90128759 2.5 0 0 0
2943 1 125.937500 4.871393 2.500000 -0.73323847 0.00000000 -0.67997158 2.5 0 0 0
2944 1 127.187500 7.036456 2.500000 -0.96868622 0.17713151 -0.17398689 2.5 0 0 0
2945 1 128.437500 9.201520 2.500000 -0.84243424 0.19527735 0.50216662 2.5 0 0 0
2946 1 129.687500 11.366583 2.500000 -0.36484540 -0.00000000 0.93106811 2.5 0 0 0
2947 1 130.937500 13.531647 2.500000 0.18242270 -0.31596539 0.93106811 2.5 0 0 0
2948 1 132.187500 15.696710 2.500000 0.59033226 -0.63193078 0.50216662 2.5 0 0 0
2949 1 133.437500 17.861774 2.500000 0.63774350 -0.75034112 -0.17398689 2.5 0 0 0
2950 1 134.687500 20.026837 2.500000 0.36661923 -0.63500314 -0.67997158 2.5 0 0 0
2951 1 135.937500 22.191901 2.500000 0.00000000 -0.43322128 -0.90128759 2.5 0 0 0
2952 1 137.187500 24.356964 2.500000 -0.37518063 -0.21661064 -0.90128759 2.5 0 0 0
2953 1 138.437500 26.522028 2.500000 -0.73323847 0.00000000 -0.67997158 2.5 0 0 0
2954 1 139.687500 28.687092 2.500000 -0.96868622 0.17713151 -0.17398689 2.5 0 0 0
2955 1 140.937500 30.852155 2.500000 -0.84243424 0.19527735 0.50216662 2.5 0 0 0
2956 1 142.187500 33.017219 2.500000 -0.36484540 0.00000000 0.93106811 2.5 0 0 0
2957 1 143.437500 35.182282 2.500000 0.18242270 -0.31596539 0.93106811 2.5 0 0 0
2958 1 144.687500 37.347346 2.500000 0.59033226 -0.63193078 0.50216662 2.5 0 0 0
2959 1 145.937500 39.512409 2.500000 0.63774350 -0.75034112 -0.17398689 2.5 0 0 0
2960 1 147.187500 41.677473 2.500000 0.36661923 -0.63500314 -0.67997158 2.5 0 0 0
2961 1 148.437500 43.842536 2.500000 0.00000000 -0.43322128 -0.90128759 2.5 0 0 0
2962 1 149.687500 46.007600 2.500000 -0.37518063 -0.21661064 -0.90128759 2.5 0 0 0
2963 1 150.937500 48.172663 2.500000 -0.73323847 0.00000000 -0.67997158 2.5 0 0 0
2964 1 152.187500 50.337727 2.500000 -0.96868622 0.17713151 -0.17398689 2.5 0 0 0
2965 1 153.437500 52.502790 2.500000 -0.84243424 0.19527735 0.50216662 2.5 0 0 0
2966 1 154.687500 54.667854 2.500000 -0.36484540 -0.00000000 0.93106811 2.5 0 0 0
2967 1 155.937500 56.832917 2.500000 0.18242270 -0.31596539 0.93106811 2.5 0 0 0
2968 1 157.187500 58.997981 2.500000 0.59033226 -0.63193078 0.50216662 2.5 0 0 0
2969 1 158.437500 61.163044 2.500000 0.63774350 -0.75034112 -0.17398689 2.5 0 0 0
2970 1 159.687500 63.328108 2.500000 0.36661923 -0.63500314 -0.67997158 2.5 0 0 0
2971 1 160.937500 65.493171 2.500000 0.00000000 -0.43322128 -0.90128759 2.5 0 0 0
2972 1 162.187500 67.658235 2.500000 -0.37518063 -0.21661064 -0.90128759 2.5 0 0 0
2973 1 163.437500 69.823298 2.500000 -0.73323847 0.00000000 -0.67997158 2.5 0 0 0
2974 1 164.687500 71.988362 2.500000 -0.96868622 0.17713151 -0.17398689 2.5 0 0 0
2975 1 165.937500 74.153425 2.500000 -0.84243424 0.19527735 0.50216662 2.5 0 0 0
2976 1 167.187500 76.318489 2.500000 -0.36484540 0.00000000 0.93106811 2.5 0 0 0
2977 1 168.437500 78.483552 2.500000 0.18242270 -0.31596539 0.93106811 2.5 0 0 0
2978 1 169.687500 80.648616 2.500000 0.59033226 -0.63193078 0.50216662 2.5 0 0 0
2979 1 170.937500 82.813679 2.500000 0.63774350 -0.75034112 -0.17398689 2.5 0 0 0
2980 1 172.187500 84.978743 2.500000 0.36661923 -0.63500314 -0.67997158 2.5 0 0 0
2981 1 173.437500 87.143806 2.500000 0.00000000 -0.43322128 -0.90128759 2.5 0 0 0
2982 1 174.687500 89.308870 2.500000 -0.37518063 -0.21661064 -0.90128759 2.5 0 0 0
2983 1 175.937500 91.473933 2.500000 -0.73323847 0.00000000 -0.67997158 2.5 0 0 0
2984 1 177.187500 93.638997 2.500000 -0.96868622 0.17713151 -0.17398689 2.5 0 0 0
2985 1 178.437500 95.804060 2.500000 -0.84243424 0.19527735 0.50216662 2.5 0 0 0
2986 1 179.687500 97.969124 2.500000 -0.36484540 -0.00000000 0.93106811 2.5 0 0 0
2987 1 180.937500 100.134187 2.500000 0.18242270 -0.31596539 0.93106811 2.5 0 0 0
2988 1 182.187500 102.299251 2.500000 0.59033226 -0.63193078 0.50216662 2.5 0 0 0
2989 1 183.437500 104.464314 2.500000 0.63774350 -0.75034112 -0.17398689 2.5 0 0 0
2990 1 184.687500 106.629378 2.500000 0.36661923 -0.63500314 -0.67997158 2.5 0 0 0
2991 1 185.937500 108.794441 2.500000 -0.00000000 -0.43322128 -0.90128759 2.5 0 0 0
2992 1 187.187500 110.959505 2.500000 -0.37518063 -0.21661064 -0.90128759 2.5 0 0 0
2993 1 188.437500 113.124568 2.500000 -0.73323847 0.00000000 -0.67997158 2.5 0 0 0
2994 1 189.687500 115.289632 2.500000 -0.96868622 0.17713151 -0.17398689 2.5 0 0 0
2995 1 190.937500 117.454695 2.500000 -0.84243424 0.19527735 0.50216662 2.5 0 0 0
2996 1 192.187500 119.619759 2.500000 -0.36484540 0.00000000 0.93106811 2.5 0 0 0
2997 1 193.437500 121.784822 2.500000 0.18242270 -0.31596539 0.93106811 2.5 0 0 0
2998 1 194.687500 123.949886 2.500000 0.59033226 -0.63193078 0.50216662 2.5 0 0 0
2999 1 195.937500 126.114949 2.500000 0.63774350 -0.75034112 -0.17398689 2.5 0 0 0
3000 1 197.187500 128.280013 2.500000 0.36661923 -0.63500314 -0.67997158 2.5 0 0 0
3001 1 125.937500 0.541266 2.500000 0.00000000 0.00000000 -1.00000000 2.5 0 0 0
3002 1 127.187500 2.706329 2.500000 -0.37518063 0.21661064 -0.90128759 2.5 0 0 0
3003 1 128.437500 4.871393 2.500000 -0.71656692 0.41371011 -0.56158329 2.5 0 0 0
3004 1 129.687500 7.036456 2.500000 -0.86381072 0.49872135 0.07147071 2.5 0 0 0
3005 1 130.937500 9.201520 2.500000 -0.58307814 0.33664032 0.73938702 2.5 0 0 0
3006 1 132.187500 11.366583 2.500000 0.00000000 -0.00000000 1.00000000 2.5 0 0 0
3007 1 133.437500 13.531647 2.500000 0.58307814 -0.33664032 0.73938702 2.5 0 0 0
3008 1 134.687500 15.696710 2.500000 0.86381072 -0.49872135 0.07147071 2.5 0 0 0
3009 1 135.937500 17.861774 2.500000 0.71656692 -0.41371011 -0.56158329 2.5 0 0 0
3010 1 137.187500 20.026837 2.500000 0.37518063 -0.21661064 -0.90128759 2.5 0 0 0
3011 1 138.437500 22.191901 2.500000 0.00000000 0.00000000 -1.00000000 2.5 0 0 0
3012 1 139.687500 24.356964 2.500000 -0.37518063 0.21661064 -0.90128759 2.5 0 0 0
3013 1 140.937500 26.522028 2.500000 -0.71656692 0.41371011 -0.56158329 2.5 0 0 0
3014 1 142.187500 28.687092 2.500000 -0.86381072 0.49872135 0.07147071 2.5 0 0 0
3015 1 143.437500 30.852155 2.500000 -0.58307814 0.33664032 0.73938702 2.5 0 0 0
3016 1 144.687500 33.017219 2.500000 0.00000000 0.00000000 1.00000000 2.5 0 0 0
3017 1 145.937500 35.182282 2.500000 0.58307814 -0.33664032 0.73938702 2.5 0 0 0
3018 1 147.187500 37.347346 2.500000 0.86381072 -0.49872135 0.07147071 2.5 0 0 0
3019 1 148.437500 39.512409 2.500000 0.71656692 -0.41371011 -0.56158329 2.5 0 0 0
3020 1 149.687500 41.677473 2.500000 0.37518063 -0.21661064 -0.90128759 2.5 0 0 0
3021 1 150.937500 43.842536 2.500000 0.00000000 -0.00000000 -1.00000000 2.5 0 0 0
3022 1 152.187500 46.007600 2.500000 -0.37518063 0.21661064 -0.90128759 2.5 0 0 0
3023 1 153.437500 48.172663 2.500000 -0.71656692 0.41371011 -0.56158329 2.5 0 0 0
3024 1 154.687500 50.337727 2.500000 -0.86381072 0.49872135 0.07147071 2.5 0 0 0
3025 1 155.937500 52.502790 2.500000 -0.58307814 0.33664032 0.73938702 2.5 0 0 0
3026 1 157.187500 54.667854 2.500000 0.00000000 -0.00000000 1.00000000 2.5 0 0 0
3027 1 158.437500 56.832917 2.500000 0.58307814 -0.33664032 0.73938702 2.5 0 0 0
3028 1 159.687500 58.997981 2.500000 0.86381072 -0.49872135 0.07147071 2.5 0 0 0
3029 1 160.937500 61.163044 2.500000 0.71656692 -0.41371011 -0.56158329 2.5 0 0 0
3030 1 162.187500 63.328108 2.500000 0.37518063 -0.21661064 -0.90128759 2.5 0 0 0
3031 1 163.437500 65.493171 2.500000 0.00000000 0.00000000 -1.00000000 2.5 0 0 0
3032 1 164.687500 67.658235 2.500000 -0.37518063 0.21661064 -0.90128759 2.5 0 0 0
3033 1 165.937500 69.823298 2.500000 -0.71656692 0.41371011 -0.56158329 2.5 0 0 0
3034 1 167.187500 71.988362 2.500000 -0.86381072 0.49872135 0.07147071 2.5 0 0 0
3035 1 168.437500 74.153425 2.500000 -0.58307814 0.33664032 0.73938702 2.5 0 0 0
3036 1 169.687500 76.318489 2.500000 0.00000000 0.00000000 1.00000000 2.5 0 0 0
3037 1 170.937500 78.483552 2.500000 0.58307814 -0.33664032 0.73938702 2.5 0 0 0
3038 1 172.187500 80.648616 2.500000 0.86381072 -0.49872135 0.07147071 2.5 0 0 0
3039 1 173.437500 82.813679 2.500000 0.71656692 -0.41371011 -0.56158329 2.5 0 0 0
3040 1 174.687500 84.978743 2.500000 0.37518063 -0.21661064 -0.90128759 2.5 0 0 0
3041 1 175.937500 87.143806 2.500000 0.00000000 0.00000000 -1.00000000 2.5 0 0 0
3042 1 177.187500 89.308870 2.500000 -0.37518063 0.21661064 -0.90128759 2.5 0 0 0
3043 1 178.437500 91.473933 2.500000 -0.71656692 0.41371011 -0.56158329 2.5 0 0 0
3044 1 179.687500 93.638997 2.500000 -0.86381072 0.49872135 0.07147071 2.5 0 0 0
3045 1 180.937500 95.804060 2.500000 -0.58307814 0.33664032 0.73938702 2.5 0 0 0
3046 1 182.187500 97.969124 2.500000 -0.00000000 -0.00000000 1.00000000 2.5 0 0 0
3047 1 183.437500 100.134187 2.500000 0.58307814 -0.33664032 0.73938702 2.5 0 0 0
3048 1 184.687500 102.299251 2.500000 0.86381072 -0.49872135 0.07147071 2.5 0 0 0
3049 1 185.937500 104.464314 2.500000 0.71656692 -0.41371011 -0.56158329 2.5 0 0 0
3050 1 187.187500 106.629378 2.500000 0.37518063 -0.21661064 -0.90128759 2.5 0 0 0
3051 1 188.437500 108.794441 2.500000 -0.00000000 0.00000000 -1.00000000 2.5 0 0 0
3052 1 189.687500 110.959505 2.500000 -0.37518063 0.21661064 -0.90128759 2.5 0 0 0
3053 1 190.937500 113.124568 2.500000 -0.71656692 0.41371011 -0.56158329 2.5 0 0 0
3054 1 192.187500 115.289632 2.500000 -0.86381072 0.49872135 0.07147071 2.5 0 0 0
3055 1 193.437500 117.454695 2.500000 -0.58307814 0.33664032 0.73938702 2.5 0 0 0
3056 1 194.687500 119.619759 2.500000 0.00000000 0.00000000 1.00000000 2.5 0 0 0
3057 1 195.937500 121.784822 2.500000 0.58307814 -0.33664032 0.73938702 2.5 0 0 0
3058 1 197.187500 123.949886 2.500000 0.86381072 -0.49872135 0.07147071 2.5 0 0 0
3059 1 198.437500 126.114949 2.500000 0.71656692 -0.41371011 -0.56158329 2.5 0 0 0
3060 1 199.687500 128.280013 2.500000 0.37518063 -0.21661064 -0.90128759 2.5 0 0 0
3061 1 128.437500 0.541266 2.500000 0.00000000 0.43322128 -0.90128759 2.5 0 0 0
3062 1 129.687500 2.706329 2.500000 -0.36661923 0.63500314 -0.67997158 2.5 0 0 0
3063 1 130.937500 4.871393 2.500000 -0.63774350 0.75034112 -0.17398689 2.5 0 0 0
3064 1 132.187500 7.036456 2.500000 -0.59033226 0.63193078 0.50216662 2.5 0 0 0
3065 1 133.437500 9.201520 2.500000 -0.18242270 0.31596539 0.93106811 2.5 0 0 0
3066 1 134.687500 11.366583 2.500000 0.36484540 -0.00000000 0.93106811 2.5 0 0 0
3067 1 135.937500 13.531647 2.500000 0.84243424 -0.19527735 0.50216662 2.5 0 0 0
3068 1 137.187500 15.696710 2.500000 0.96868622 -0.17713151 -0.17398689 2.5 0 0 0
3069 1 138.437500 17.861774 2.500000 0.73323847 0.00000000 -0.67997158 2.5 0 0 0
3070 1 139.687500 20.026837 2.500000 0.37518063 0.21661064 -0.90128759 2.5 0 0 0
3071 1 140.937500 22.191901 2.500000 -0.00000000 0.43322128 -0.90128759 2.5 0 0 0
3072 1 142.187500 24.356964 2.500000 -0.36661923 0.63500314 -0.67997158 2.5 0 0 0
3073 1 143.437500 26.522028 2.500000 -0.63774350 0.75034112 -0.17398689 2.5 0 0 0
3074 1 144.687500 28.687092 2.500000 -0.59033226 0.63193078 0.50216662 2.5 0 0 0
3075 1 145.937500 30.852155 2.500000 -0.18242270 0.31596539 0.93106811 2.5 0 0 0
3076 1 147.187500 33.017219 2.500000 0.36484540 0.00000000 0.93106811 2.5 0 0 0
3077 1 148.437500 35.182282 2.500000 0.84243424 -0.19527735 0.50216662 2.5 0 0 0
3078 1 149.687500 37.347346 2.500000 0.96868622 -0.17713151 -0.17398689 2.5 0 0 0
3079 1 150.937500 39.512409 2.500000 0.73323847 -0.00000000 -0.67997158 2.5 0 0 0
3080 1 152.187500 41.677473 2.500000 0.37518063 0.21661064 -0.90128759 2.5 0 0 0
3081 1 153.437500 43.842536 2.500000 0.00000000 0.43322128 -0.90128759 2.5 0 0 0
3082 1 154.687500 46.007600 2.500000 -0.36661923 0.63500314 -0.67997158 2.5 0 0 0
3083 1 155.937500 48.172663 2.500000 -0.63774350 0.75034112 -0.17398689 2.5 0 0 0
3084 1 157.187500 50.337727 2.500000 -0.59033226 0.63193078 0.50216662 2.5 0 0 0
3085 1 158.437500 52.502790 2.500000 -0.18242270 0.31596539 0.93106811 2.5 0 0 0
3086 1 159.687500 54.667854 2.500000 0.36484540 -0.00000000 0.93106811 2.5 0 0 0
3087 1 160.937500 56.832917 2.500000 0.84243424 -0.19527735 0.50216662 2.5 0 0 0
3088 1 162.187500 58.997981 2.500000 0.96868622 -0.17713151 -0.17398689 2.5 0 0 0
3089 1 163.437500 61.163044 2.500000 0.73323847 0.00000000 -0.67997158 2.5 0 0 0
3090 1 164.687500 63.328108 2.500000 0.37518063 0.21661064 -0.90128759 2.5 0 0 0
3091 1 165.937500 65.493171 2.500000 0.00000000 0.43322128 -0.90128759 2.5 0 0 0
3092 1 167.187500 67.658235 2.500000 -0.36661923 0.63500314 -0.67997158 2.5 0 0 0
3093 1 168.437500 69.823298 2.500000 -0.63774350 0.75034112 -0.17398689 2.5 0 0 0
3094 1 169.687500 71.988362 2.500000 -0.59033226 0.63193078 0.50216662 2.5 0 0 0
3095 1 170.937500 74.153425 2.500000 -0.18242270 0.31596539 0.93106811 2.5 0 0 0
3096 1 172.187500 76.318489 2.500000 0.36484540 0.00000000 0.93106811 2.5 0 0 0
3097 1 173.437500 78.483552 2.500000 0.84243424 -0.19527735 0.50216662 2.5 0 0 0
3098 1 174.687500 80.648616 2.500000 0.96868622 -0.17713151 -0.17398689 2.5 0 0 0
3099 1 175.937500 82.813679 2.500000 0.73323847 0.00000000 -0.67997158 2.5 0 0 0
3100 1 177.187500 84.978743 2.500000 0.37518063 0.21661064 -0.90128759 2.5 0 0 0
3101 1 178.437500 87.143806 2.500000 0.00000000 0.43322128 -0.90128759 2.5 0 0 0
3102 1 179.687500 89.308870 2.500000 -0.36661923 0.63500314 -0.67997158 2.5 0 0 0
3103 1 180.937500 91.473933 2.500000 -0.63774350 0.75034112 -0.17398689 2.5 0 0 0
3104 1 182.187500 93.638997 2.500000 -0.59033226 0.63193078 0.50216662 2.5 0 0 0
3105 1 183.437500 95.804060 2.500000 -0.18242270 0.31596539 0.93106811 2.5 0 0 0
3106 1 184.687500 97.969124 2.500000 0.36484540 -0.00000000 0.93106811 2.5 0 0 0
3107 1 185.937500 100.134187 2.500000 0.84243424 -0.19527735 0.50216662 2.5 0 0 0
3108 1 187.187500 102.299251 2.500000 0.96868622 -0.17713151 -0.17398689 2.5 0 0 0
3109 1 188.437500 104.464314 2.500000 0.73323847 0.00000000 -0.67997158 2.5 0 0 0
3110 1 189.687500 106.629378 2.500000 0.37518063 0.21661064 -0.90128759 2.5 0 0 0
3111 1 190.937500 108.794441 2.500000 -0.00000000 0.43322128 -0.90128759 2.5 0 0 0
3112 1 192.187500 110.959505 2.500000 -0.36661923 0.63500314 -0.67997158 2.5 0 0 0
3113 1 193.437500 113.124568 2.500000 -0.63774350 0.75034112 -0.17398689 2.5 0 0 0
3114 1 194.687500 115.289632 2.500000 -0.59033226 0.63193078 0.50216662 2.5 0 0 0
3115 1 195.937500 117.454695 2.500000 -0.18242270 0.31596539 0.93106811 2.5 0 0 0
3116 1 197.187500 119.619759 2.500000 0.36484540 -0.00000000 0.93106811 2.5 0 0 0
3117 1 198.437500 121.784822 2.500000 0.84243424 -0.19527735 0.50216662 2.5 0 0 0
3118 1 199.687500 123.949886 2.500000 0.96868622 -0.17713151 -0.17398689 2.5 0 0 0
3119 1 200.937500 126.114949 2.500000 0.73323847 0.00000000 -0.67997158 2.5 0 0 0
3120 1 202.187500 128.280013 2.500000 0.37518063 0.21661064 -0.90128759 2.5 0 0 0
3121 1 130.937500 0.541266 2.500000 0.00000000 0.82742021 -0.56158329 2.5 0 0 0
3122 1 132.187500 2.706329 2.500000 -0.33094272 0.92747263 -0.17398689 2.5 0 0 0
3123 1 133.437500 4.871393 2.500000 -0.45612652 0.79003431 0.40962714 2.5 0 0 0
3124 1 134.687500 7.036456 2.500000 -0.26773829 0.46373631 0.84455008 2.5 0 0 0
3125 1 135.937500 9.201520 2.500000 0.09844051 0.17050396 0.98042739 2.5 0 0 0
3126 1 137.187500 11.366583 2.500000 0.53547657 -0.00000000 0.84455008 2.5 0 0 0
3127 1 138.437500 13.531647 2.500000 0.91225304 0.00000000 0.40962714 2.5 0 0 0
3128 1 139.687500 15.696710 2.500000 0.96868622 0.17713151 -0.17398689 2.5 0 0 0
3129 1 140.937500 17.861774 2.500000 0.71656692 0.41371011 -0.56158329 2.5 0 0 0
3130 1 142.187500 20.026837 2.500000 0.36661923 0.63500314 -0.67997158 2.5 0 0 0
3131 1 143.437500 22.191901 2.500000 -0.00000000 0.82742021 -0.56158329 2.5 0 0 0
3132 1 144.687500 24.356964 2.500000 -0.33094272 0.92747263 -0.17398689 2.5 0 0 0
3133 1 145.937500 26.522028 2.500000 -0.45612652 0.79003431 0.40962714 2.5 0 0 0
3134 1 147.187500 28.687092 2.500000 -0.26773829 0.46373631 0.84455008 2.5 0 0 0
3135 1 148.437500 30.852155 2.500000 0.09844051 0.17050396 0.98042739 2.5 0 0 0
3136 1 149.687500 33.017219 2.500000 0.53547657 0.00000000 0.84455008 2.5 0 0 0
3137 1 150.937500 35.182282 2.500000 0.91225304 -0.00000000 0.40962714 2.5 0 0 0
3138 1 152.187500 37.347346 2.500000 0.96868622 0.17713151 -0.17398689 2.5 0 0 0
3139 1 153.437500 39.512409 2.500000 0.71656692 0.41371011 -0.56158329 2.5 0 0 0
3140 1 154.687500 41.677473 2.500000 0.36661923 0.63500314 -0.67997158 2.5 0 0 0
3141 1 155.937500 43.842536 2.500000 0.00000000 0.82742021 -0.56158329 2.5 0 0 0
3142 1 157.187500 46.007600 2.500000 -0.33094272 0.92747263 -0.17398689 2.5 0 0 0
3143 1 158.437500 48.172663 2.500000 -0.45612652 0.79003431 0.40962714 2.5 0 0 0
3144 1 159.687500 50.337727 2.500000 -0.26773829 0.46373631 0.84455008 2.5 0 0 0
3145 1 160.937500 52.502790 2.500000 0.09844051 0.17050396 0.98042739 2.5 0 0 0
3146 1 162.187500 54.667854 2.500000 0.53547657 -0.00000000 0.84455008 2.5 0 0 0
3147 1 163.437500 56.832917 2.500000 0.91225304 0.00000000 0.40962714 2.5 0 0 0
3148 1 164.687500 58.997981 2.500000 0.96868622 0.17713151 -0.17398689 2.5 0 0 0
3149 1 165.937500 61.163044 2.500000 0.71656692 0.41371011 -0.56158329 2.5 0 0 0
3150 1 167.187500 63.328108 2.500000 0.36661923 0.63500314 -0.67997158 2.5 0 0 0
3151 1 168.437500 65.493171 2.500000 -0.00000000 0.82742021 -0.56158329 2.5 0 0 0
3152 1 169.687500 67.658235 2.500000 -0.33094272 0.92747263 -0.17398689 2.5 0 0 0
3153 1 170.937500 69.823298 2.500000 -0.45612652 0.79003431 0.40962714 2.5 0 0 0
3154 1 172.187500 71.988362 2.500000 -0.26773829 0.46373631 0.84455008 2.5 0 0 0
3155 1 173.437500 74.153425 2.500000 0.09844051 0.17050396 0.98042739 2.5 0 0 0
3156 1 174.687500 76.318489 2.500000 0.53547657 0.00000000 0.84455008 2.5 0 0 0
3157 1 175.937500 78.483552 2.500000 0.91225304 0.00000000 0.40962714 2.5 0 0 0
3158 1 177.187500 80.648616 2.500000 0.96868622 0.17713151 -0.17398689 2.5 0 0 0
3159 1 178.437500 82.813679 2.500000 0.71656692 0.41371011 -0.56158329 2.5 0 0 0
3160 1 179.687500 84.978743 2.500000 0.36661923 0.63500314 -0.67997158 2.5 0 0 0
3161 1 180.937500 87.143806 2.500000 0.00000000 0.82742021 -0.56158329 2.5 0 0 0
3162 1 182.187500 89.308870 2.500000 -0.33094272 0.92747263 -0.17398689 2.5 0 0 0
3163 1 183.437500 91.473933 2.500000 -0.45612652 0.79003431 0.40962714 2.5 0 0 0
3164 1 184.687500 93.638997 2.500000 -0.26773829 0.46373631 0.84455008 2.5 0 0 0
3165 1 185.937500 95.804060 2.500000 0.09844051 0.17050396 0.98042739 2.5 0 0 0
3166 1 187.187500 97.969124 2.500000 0.53547657 -0.00000000 0.84455008 2.5 0 0 0
3167 1 188.437500 100.134187 2.500000 0.91225304 0.00000000 0.40962714 2.5 0 0 0
3168 1 189.687500 102.299251 2.500000 0.96868622 0.17713151 -0.17398689 2.5 0 0 0
3169 1 190.937500 104.464314 2.500000 0.71656692 0.41371011 -0.56158329 2.5 0 0 0
3170 1 192.187500 106.629378 2.500000 0.36661923 0.63500314 -0.67997158 2.5 0 0 0
3171 1 193.437500 108.794441 2.500000 -0.00000000 0.82742021 -0.56158329 2.5 0 0 0
3172 1 194.687500 110.959505 2.500000 -0.33094272 0.92747263 -0.17398689 2.5 0 0 0
3173 1 195.937500 113.124568 2.500000 -0.45612652 0.79003431 0.40962714 2.5 0 0 0
3174 1 197.187500 115.289632 2.500000 -0.26773829 0.46373631 0.84455008 2.5 0 0 0
3175 1 198.437500 117.454695 2.500000 0.09844051 0.17050396 0.98042739 2.5 0 0 0
3176 1 199.687500 119.619759 2.500000 0.53547657 -0.00000000 0.84455008 2.5 0 0 0
3177 1 200.937500 121.784822 2.500000 0.91225304 0.00000000 0.40962714 2.5 0 0 0
3178 1 202.187500 123.949886 2.500000 0.96868622 0.17713151 -0.17398689 2.5 0 0 0
3179 1 203.437500 126.114949 2.500000 0.71656692 0.41371011 -0.56158329 2.5 0 0 0
3180 1 204.687500 128.280013 2.500000 0.36661923 0.63500314 -0.67997158 2.5 0 0 0
3181 1 133.437500 0.541266 2.500000 0.00000000 0.99744270 0.07147071 2.5 0 0 0
3182 1 134.687500 2.706329 2.500000 -0.25210197 0.82720813 0.50216662 2.5 0 0 0
3183 1 135.937500 4.871393 2.500000 -0.26773829 0.46373631 0.84455008 2.5 0 0 0
3184 1 137.187500 7.036456 2.500000 -0.09262434 0.16043006 0.98269167 2.5 0 0 0
3185 1 138.437500 9.201520 2.500000 0.18524868 -0.00000000 0.98269167 2.5 0 0 0
3186 1 139.687500 11.366583 2.500000 0.53547657 0.00000000 0.84455008 2.5 0 0 0
3187 1 140.937500 13.531647 2.500000 0.84243424 0.19527735 0.50216662 2.5 0 0 0
3188 1 142.187500 15.696710 2.500000 0.86381072 0.49872135 0.07147071 2.5 0 0 0
3189 1 143.437500 17.861774 2.500000 0.63774350 0.75034112 -0.17398689 2.5 0 0 0
3190 1 144.687500 20.026837 2.500000 0.33094272 0.92747263 -0.17398689 2.5 0 0 0
3191 1 145.937500 22.191901 2.500000 -0.00000000 0.99744270 0.07147071 2.5 0 0 0
3192 1 147.187500 24.356964 2.500000 -0.25210197 0.82720813 0.50216662 2.5 0 0 0
3193 1 148.437500 26.522028 2.500000 -0.26773829 0.46373631 0.84455008 2.5 0 0 0
3194 1 149.687500 28.687092 2.500000 -0.09262434 0.16043006 0.98269167 2.5 0 0 0
3195 1 150.937500 30.852155 2.500000 0.18524868 0.00000000 0.98269167 2.5 0 0 0
3196 1 152.187500 33.017219 2.500000 0.53547657 -0.00000000 0.84455008 2.5 0 0 0
3197 1 153.437500 35.182282 2.500000 0.84243424 0.19527735 0.50216662 2.5 0 0 0
3198 1 154.687500 37.347346 2.500000 0.86381072 0.49872135 0.07147071 2.5 0 0 0
3199 1 155.937500 39.512409 2.500000 0.63774350 0.75034112 -0.17398689 2.5 0 0 0
3200 1 157.187500 41.677473 2.500000 0.33094272 0.92747263 -0.17398689 2.5 0 0 0
3201 1 158.437500 43.842536 2.500000 0.00000000 0.99744270 0.07147071 2.5 0 0 0
3202 1 159.687500 46.007600 2.500000 -0.25210197 0.82720813 0.50216662 2.5 0 0 0
3203 1 160.937500 48.172663 2.500000 -0.26773829 0.46373631 0.84455008 2.5 0 0 0
3204 1 162.187500 50.337727 2.500000 -0.09262434 0.16043006 0.98269167 2.5 0 0 0
3205 1 163.437500 52.502790 2.500000 0.18524868 -0.00000000 0.98269167 2.5 0 0 0
3206 1 164.687500 54.667854 2.500000 0.53547657 0.00000000 0.84455008 2.5 0 0 0
3207 1 165.937500 56.832917 2.500000 0.84243424 0.19527735 0.50216662 2.5 0 0 0
3208 1 167.187500 58.997981 2.500000 0.86381072 0.49872135 0.07147071 2.5 0 0 0
3209 1 168.437500 61.163044 2.500000 0.63774350 0.75034112 -0.17398689 2.5 0 0 0
3210 1 169.687500 63.328108 2.500000 0.33094272 0.92747263 -0.17398689 2.5 0 0 0
3211 1 170.937500 65.493171 2.500000 0.00000000 0.99744270 0.07147071 2.5 0 0 0
3212 1 172.187500 67.658235 2.500000 -0.25210197 0.82720813 0.50216662 2.5 0 0 0
3213 1 173.437500 69.823298 2.500000 -0.26773829 0.46373631 0.84455008 2.5 0 0 0
3214 1 174.687500 71.988362 2.500000 -0.09262434 0.16043006 0.98269167 2.5 0 0 0
3215 1 175.937500 74.153425 2.500000 0.18524868 -0.00000000 0.98269167 2.5 0 0 0
3216 1 177.187500 76.318489 2.500000 0.53547657 -0.00000000 0.84455008 2.5 0 0 0
3217 1 178.437500 78.483552 2.500000 0.84243424 0.19527735 0.50216662 2.5 0 0 0
3218 1 179.687500 80.648616 2.500000 0.86381072 0.49872135 0.07147071 2.5 0 0 0
3219 1 180.937500 82.813679 2.500000 0.63774350 0.75034112 -0.17398689 2.5 0 0 0
3220 1 182.187500 84.978743 2.500000 0.33094272 0.92747263 -0.17398689 2.5 0 0 0
3221 1 183.437500 87.143806 2.500000 0.00000000 0.99744270 0.07147071 2.5 0 0 0
3222 1 184.687500 89.308870 2.500000 -0.25210197 0.82720813 0.50216662 2.5 0 0 0
3223 1 185.937500 91.473933 2.500000 -0.26773829 0.46373631 0.84455008 2.5 0 0 0
3224 1 187.187500 93.638997 2.500000 -0.09262434 0.16043006 0.98269167 2.5 0 0 0
3225 1 188.437500 95.804060 2.500000 0.18524868 -0.00000000 0.98269167 2.5 0 0 0
3226 1 189.687500 97.969124 2.500000 0.53547657 0.00000000 0.84455008 2.5 0 0 0
3227 1 190.937500 100.134187 2.500000 0.84243424 0.19527735 0.50216662 2.5 0 0 0
3228 1 192.187500 102.299251 2.500000 0.86381072 0.49872135 0.07147071 2.5 0 0 0
3229 1 193.437500 104.464314 2.500000 0.63774350 0.75034112 -0.17398689 2.5 0 0 0
3230 1 194.687500 106.629378 2.500000 0.33094272 0.92747263 -0.17398689 2.5 0 0 0
3231 1 195.937500 108.794441 2.500000 -0.00000000 0.99744270 0.07147071 2.5 0 0 0
3232 1 197.187500 110.959505 2.500000 -0.25210197 0.82720813 0.50216662 2.5 0 0 0
3233 1 198.437500 113.124568 2.500000 -0.26773829 0.46373631 0.84455008 2.5 0 0 0
3234 1 199.687500 115.289632 2.500000 -0.09262434 0.16043006 0.98269167 2.5 0 0 0
3235 1 200.937500 117.454695 2.500000 0.18524868 -0.00000000 0.98269167 2.5 0 0 0
3236 1 202.187500 119.619759 2.500000 0.53547657 -0.00000000 0.84455008 2.5 0 0 0
3237 1 203.437500 121.784822 2.500000 0.84243424 0.19527735 0.50216662 2.5 0 0 0
3238 1 204.687500 123.949886 2.500000 0.86381072 0.49872135 0.07147071 2.5 0 0 0
3239 1 205.937500 126.114949 2.500000 0.63774350 0.75034112 -0.17398689 2.5 0 0 0
3240 1 207.187500 128.280013 2.500000 0.33094272 0.92747263 -0.17398689 2.5 0 0 0
3241 1 135.937500 0.541266 2.500000 0.00000000 0.67328065 0.73938702 2.5 0 0 0
3242 1 137.187500 2.706329 2.500000 -0.18242270 0.31596539 0.93106811 2.5 0 0 0
3243 1 138.437500 4.871393 2.500000 -0.19688101 -0.00000000 0.98042739 2.5 0 0 0
3244 1 139.687500 7.036456 2.500000 -0.09262434 -0.16043006 0.98269167 2.5 0 0 0
3245 1 140.937500 9.201520 2.500000 0.09844051 -0.17050396 0.98042739 2.5 0 0 0
3246 1 142.187500 11.366583 2.500000 0.36484540 0.00000000 0.93106811 2.5 0 0 0
3247 1 143.437500 13.531647 2.500000 0.58307814 0.33664032 0.73938702 2.5 0 0 0
3248 1 144.687500 15.696710 2.500000 0.59033226 0.63193078 0.50216662 2.5 0 0 0
3249 1 145.937500 17.861774 2.500000 0.45612652 0.79003431 0.40962714 2.5 0 0 0
3250 1 147.187500 20.026837 2.500000 0.25210197 0.82720813 0.50216662 2.5 0 0 0
3251 1 148.437500 22.191901 2.500000 -0.00000000 0.67328065 0.73938702 2.5 0 0 0
3252 1 149.687500 24.356964 2.500000 -0.18242270 0.31596539 0.93106811 2.5 0 0 0
3253 1 150.937500 26.522028 2.500000 -0.19688101 0.00000000 0.98042739 2.5 0 0 0
3254 1 152.187500 28.687092 2.500000 -0.09262434 -0.16043006 0.98269167 2.5 0 0 0
3255 1 153.437500 30.852155 2.500000 0.09844051 -0.17050396 0.98042739 2.5 0 0 0
3256 1 154.687500 33.017219 2.500000 0.36484540 -0.00000000 0.93106811 2.5 0 0 0
3257 1 155.937500 35.182282 2.500000 0.58307814 0.33664032 0.73938702 2.5 0 0 0
3258 1 157.187500 37.347346 2.500000 0.59033226 0.63193078 0.50216662 2.5 0 0 0
3259 1 158.437500 39.512409 2.500000 0.45612652 0.79003431 0.40962714 2.5 0 0 0
3260 1 159.687500 41.677473 2.500000 0.25210197 0.82720813 0.50216662 2.5 0 0 0
3261 1 160.937500 43.842536 2.500000 0.00000000 0.67328065 0.73938702 2.5 0 0 0
3262 1 162.187500 46.007600 2.500000 -0.18242270 0.31596539 0.93106811 2.5 0 0 0
3263 1 163.437500 48.172663 2.500000 -0.19688101 -0.00000000 0.98042739 2.5 0 0 0
3264 1 164.687500 50.337727 2.500000 -0.09262434 -0.16043006 0.98269167 2.5 0 0 0
3265 1 165.937500 52.502790 2.500000 0.09844051 -0.17050396 0.98042739 2.5 0 0 0
3266 1 167.187500 54.667854 2.500000 0.36484540 0.00000000 0.93106811 2.5 0 0 0
3267 1 168.437500 56.832917 2.500000 0.58307814 0.33664032 0.73938702 2.5 0 0 0
3268 1 169.687500 58.997981 2.500000 0.59033226 0.63193078 0.50216662 2.5 0 0 0
3269 1 170.937500 61.163044 2.500000 0.45612652 0.79003431 0.40962714 2.5 0 0 0
3270 1 172.187500 63.328108 2.500000 0.25210197 0.82720813 0.50216662 2.5 0 0 0
3271 1 173.437500 65.493171 2.500000 -0.00000000 0.67328065 0.73938702 2.5 0 0 0
3272 1 174.687500 67.658235 2.500000 -0.18242270 0.31596539 0.93106811 2.5 0 0 0
3273 1 175.937500 69.823298 2.500000 -0.19688101 -0.00000000 0.98042739 2.5 0 0 0
3274 1 177.187500 71.988362 2.500000 -0.09262434 -0.16043006 0.98269167 2.5 0 0 0
3275 1 178.437500 74.153425 2.500000 0.09844051 -0.17050396 0.98042739 2.5 0 0 0
3276 1 179.687500 76.318489 2.500000 0.36484540 -0.00000000 0.93106811 2.5 0 0 0
3277 1 180.937500 78.483552 2.500000 0.58307814 0.33664032 0.73938702 2.5 0 0 0
3278 1 182.187500 80.648616 2.500000 0.59033226 0.63193078 0.50216662 2.5 0 0 0
3279 1 183.437500 82.813679 2.500000 0.45612652 0.79003431 0.40962714 2.5 0 0 0
3280 1 184.687500 84.978743 2.500000 0.25210197 0.82720813 0.50216662 2.5 0 0 0
3281 1 185.937500 87.143806 2.500000 0.00000000 0.67328065 0.73938702 2.5 0 0 0
3282 1 187.187500 89.308870 2.500000 -0.18242270 0.31596539 0.93106811 2.5 0 0 0
3283 1 188.437500 91.473933 2.500000 -0.19688101 -0.00000000 0.98042739 2.5 0 0 0
3284 1 189.687500 93.638997 2.500000 -0.09262434 -0.16043006 0.98269167 2.5 0 0 0
3285 1 190.937500 95.804060 2.500000 0.09844051 -0.17050396 0.98042739 2.5 0 0 0
3286 1 192.187500 97.969124 2.500000 0.36484540 0.00000000 0.93106811 2.5 0 0 0
3287 1 193.437500 100.134187 2.500000 0.58307814 0.33664032 0.73938702 2.5 0 0 0
3288 1 194.687500 102.299251 2.500000 0.59033226 0.63193078 0.50216662 2.5 0 0 0
3289 1 195.937500 104.464314 2.500000 0.45612652 0.79003431 0.40962714 2.5 0 0 0
3290 1 197.187500 106.629378 2.500000 0.25210197 0.82720813 0.50216662 2.5 0 0 0
3291 1 198.437500 108.794441 2.500000 -0.00000000 0.67328065 0.73938702 2.5 0 0 0
3292 1 199.687500 110.959505 2.500000 -0.18242270 0.31596539 0.93106811 2.5 0 0 0
3293 1 200.937500 113.124568 2.500000 -0.19688101 -0.00000000 0.98042739 2.5 0 0 0
3294 1 202.187500 115.289632 2.500000 -0.09262434 -0.16043006 0.98269167 2.5 0 0 0
3295 1 203.437500 117.454695 2.500000 0.09844051 -0.17050396 0.98042739 2.5 0 0 0
3296 1 204.687500 119.619759 2.500000 0.36484540 -0.00000000 0.93106811 2.5 0 0 0
3297 1 205.937500 121.784822 2.500000 0.58307814 0.33664032 0.73938702 2.5 0 0 0
3298 1 207.187500 123.949886 2.500000 0.59033226 0.63193078 0.50216662 2.5 0 0 0
3299 1 208.437500 126.114949 2.500000 0.45612652 0.79003431 0.40962714 2.5 0 0 0
3300 1 209.687500 128.280013 2.500000 0.25210197 0.82720813 0.50216662 2.5 0 0 0
3301 1 138.437500 0.541266 2.500000 0.00000000 -0.00000000 1.00000000 2.5 0 0 0
3302 1 139.687500 2.706329 2.500000 -0.18242270 -0.31596539 0.93106811 2.5 0 0 0
3303 1 140.937500 4.871393 2.500000 -0.26773829 -0.46373631 0.84455008 2.5 0 0 0
3304 1 142.187500 7.036456 2.500000 -0.26773829 -0.46373631 0.84455008 2.5 0 0 0
3305 1 143.437500 9.201520 2.500000 -0.18242270 -0.31596539 0.93106811 2.5 0 0 0
3306 1 144.687500 11.366583 2.500000 -0.00000000 0.00000000 1.00000000 2.5 0 0 0
3307 1 145.937500 13.531647 2.500000 0.18242270 0.31596539 0.93106811 2.5 0 0 0
3308 1 147.187500 15.696710 2.500000 0.26773829 0.46373631 0.84455008 2.5 0 0 0
3309 1 148.437500 17.861774 2.500000 0.26773829 0.46373631 0.84455008 2.5 0 0 0
3310 1 149.687500 20.026837 2.500000 0.18242270 0.31596539 0.93106811 2.5 0 0 0
3311 1 150.937500 22.191901 2.500000 0.00000000 0.00000000 1.00000000 2.5 0 0 0
3312 1 152.187500 24.356964 2.500000 -0.18242270 -0.31596539 0.93106811 2.5 0 0 0
3313 1 153.437500 26.522028 2.500000 -0.26773829 -0.46373631 0.84455008 2.5 0 0 0
3314 1 154.687500 28.687092 2.500000 -0.26773829 -0.46373631 0.84455008 2.5 0 0 0
3315 1 155.937500 30.852155 2.500000 -0.18242270 -0.31596539 0.93106811 2.5 0 0 0
3316 1 157.187500 33.017219 2.500000 -0.00000000 -0.00000000 1.00000000 2.5 0 0 0
3317 1 158.437500 35.182282 2.500000 0.18242270 0.31596539 0.93106811 2.5 0 0 0
3318 1 159.687500 37.347346 2.500000 0.26773829 0.46373631 0.84455008 2.5 0 0 0
3319 1 160.937500 39.512409 2.500000 0.26773829 0.46373631 0.84455008 2.5 0 0 0
3320 1 162.187500 41.677473 2.500000 0.18242270 0.31596539 0.93106811 2.5 0 0 0
3321 1 163.437500 43.842536 2.500000 0.00000000 -0.00000000 1.00000000 2.5 0 0 0
3322 1 164.687500 46.007600 2.500000 -0.18242270 -0.31596539 0.93106811 2.5 0 0 0
3323 1 165.937500 48.172663 2.500000 -0.26773829 -0.46373631 0.84455008 2.5 0 0 0
3324 1 167.187500 50.337727 2.500000 -0.26773829 -0.46373631 0.84455008 2.5 0 0 0
3325 1 168.437500 52.502790 2.500000 -0.18242270 -0.31596539 0.93106811 2.5 0 0 0
3326 1 169.687500 54.667854 2.500000 -0.00000000 0.00000000 1.00000000 2.5 0 0 0
3327 1 170.937500 56.832917 2.500000 0.18242270 0.31596539 0.93106811 2.5 0 0 0
3328 1 172.187500 58.997981 2.500000 0.26773829 0.46373631 0.84455008 2.5 0 0 0
3329 1 173.437500 61.163044 2.500000 0.26773829 0.46373631 0.84455008 2.5 0 0 0
3330 1 174.687500 63.328108 2.500000 0.18242270 0.31596539 0.93106811 2.5 0 0 0
3331 1 175.937500 65.493171 2.500000 -0.00000000 -0.00000000 1.00000000 2.5 0 0 0
3332 1 177.187500 67.658235 2.500000 -0.18242270 -0.31596539 0.93106811 2.5 0 0 0
3333 1 178.437500 69.823298 2.500000 -0.26773829 -0.46373631 0.84455008 2.5 0 0 0
3334 1 179.687500 71.988362 2.500000 -0.26773829 -0.46373631 0.84455008 2.5 0 0 0
3335 1 180.937500 74.153425 2.500000 -0.18242270 -0.31596539 0.93106811 2.5 0 0 0
3336 1 182.187500 76.318489 2.500000 -0.00000000 -0.00000000 1.00000000 2.5 0 0 0
3337 1 183.437500 78.483552 2.500000 0.18242270 0.31596539 0.93106811 2.5 0 0 0
3338 1 184.687500 80.648616 2.500000 0.26773829 0.46373631 0.84455008 2.5 0 0 0
3339 1 185.937500 82.813679 2.500000 0.26773829 0.46373631 0.84455008 2.5 0 0 0
3340 1 187.187500 84.978743 2.500000 0.18242270 0.31596539 0.93106811 2.5 0 0 0
3341 1 188.437500 87.143806 2.500000 0.00000000 -0.00000000 1.00000000 2.5 0 0 0
3342 1 189.687500 89.308870 2.500000 -0.18242270 -0.31596539 0.93106811 2.5 0 0 0
3343 1 190.937500 91.473933 2.500000 -0.26773829 -0.46373631 0.84455008 2.5 0 0 0
3344 1 192.187500 93.638997 2.500000 -0.26773829 -0.46373631 0.84455008 2.5 0 0 0
3345 1 193.437500 95.804060 2.500000 -0.18242270 -0.31596539 0.93106811 2.5 0 0 0
3346 1 194.687500 97.969124 2.500000 -0.00000000 0.00000000 1.00000000 2.5 0 0 0
3347 1 195.937500 100.134187 2.500000 0.18242270 0.31596539 0.93106811 2.5 0 0 0
3348 1 197.187500 102.299251 2.500000 0.26773829 0.46373631 0.84455008 2.5 0 0 0
3349 1 198.437500 104.464314 2.500000 0.26773829 0.46373631 0.84455008 2.5 0 0 0
3350 1 199.687500 106.629378 2.500000 0.18242270 0.31596539 0.93106811 2.5 0 0 0
3351 1 200.937500 108.794441 2.500000 -0.00000000 -0.00000000 1.00000000 2.5 0 0 0
3352 1 202.187500 110.959505 2.500000 -0.18242270 -0.31596539 0.93106811 2.5 0 0 0
3353 1 203.437500 113.124568 2.500000 -0.26773829 -0.46373631 0.84455008 2.5 0 0 0
3354 1 204.687500 115.289632 2.500000 -0.26773829 -0.46373631 0.84455008 2.5 0 0 0
3355 1 205.937500 117.454695 2.500000 -0.18242270 -0.31596539 0.93106811 2.5 0 0 0
3356 1 207.187500 119.619759 2.500000 0.00000000 0.00000000 1.00000000 2.5 0 0 0
3357 1 208.437500 121.784822 2.500000 0.18242270 0.31596539 0.93106811 2.5 0 0 0
3358 1 209.687500 123.949886 2.500000 0.26773829 0.46373631 0.84455008 2.5 0 0 0
3359 1 210.937500 126.114949 2.500000 0.26773829 0.46373631 0.84455008 2.5 0 0 0
3360 1 212.187500 128.280013 2.500000 0.18242270 0.31596539 0.93106811 2.5 0 0 0
3361 1 140.937500 0.541266 2.500000 0.00000000 -0.67328065 0.73938702 2.5 0 0 0
3362 1 142.187500 2.706329 2.500000 -0.25210197 -0.82720813 0.50216662 2.5 0 0 0
3363 1 143.437500 4.871393 2.500000 -0.45612652 -0.79003431 0.40962714 2.5 0 0 0
3364 1 144.687500 7.036456 2.500000 -0.59033226 -0.63193078 0.50216662 2.5 0 0 0
3365 1 145.937500 9.201520 2.500000 -0.58307814 -0.33664032 0.73938702 2.5 0 0 0
3366 1 147.187500 11.366583 2.500000 -0.36484540 0.00000000 0.93106811 2.5 0 0 0
3367 1 148.437500 13.531647 2.500000 -0.09844051 0.17050396 0.98042739 2.5 0 0 0
3368 1 149.687500 15.696710 2.500000 0.09262434 0.16043006 0.98269167 2.5 0 0 0
3369 1 150.937500 17.861774 2.500000 0.19688101 0.00000000 0.98042739 2.5 0 0 0
3370 1 152.187500 20.026837 2.500000 0.18242270 -0.31596539 0.93106811 2.5 0 0 0
3371 1 153.437500 22.191901 2.500000 0.00000000 -0.67328065 0.73938702 2.5 0 0 0
3372 1 154.687500 24.356964 2.500000 -0.25210197 -0.82720813 0.50216662 2.5 0 0 0
3373 1 155.937500 26.522028 2.500000 -0.45612652 -0.79003431 0.40962714 2.5 0 0 0
3374 1 157.187500 28.687092 2.500000 -0.59033226 -0.63193078 0.50216662 2.5 0 0 0
3375 1 158.437500 30.852155 2.500000 -0.58307814 -0.33664032 0.73938702 2.5 0 0 0
3376 1 159.687500 33.017219 2.500000 -0.36484540 -0.00000000 0.93106811 2.5 0 0 0
3377 1 160.937500 35.182282 2.500000 -0.09844051 0.17050396 0.98042739 2.5 0 0 0
3378 1 162.187500 37.347346 2.500000 0.09262434 0.16043006 0.98269167 2.5 0 0 0
3379 1 163.437500 39.512409 2.500000 0.19688101 -0.00000000 0.98042739 2.5 0 0 0
3380 1 164.687500 41.677473 2.500000 0.18242270 -0.31596539 0.93106811 2.5 0 0 0
3381 1 165.937500 43.842536 2.500000 0.00000000 -0.67328065 0.73938702 2.5 0 0 0
3382 1 167.187500 46.007600 2.500000 -0.25210197 -0.82720813 0.50216662 2.5 0 0 0
3383 1 168.437500 48.172663 2.500000 -0.45612652 -0.79003431 0.40962714 2.5 0 0 0
3384 1 169.687500 50.337727 2.500000 -0.59033226 -0.63193078 0.50216662 2.5 0 0 0
3385 1 170.937500 52.502790 2.500000 -0.58307814 -0.33664032 0.73938702 2.5 0 0 0
3386 1 172.187500 54.667854 2.500000 -0.36484540 0.00000000 0.93106811 2.5 0 0 0
3387 1 173.437500 56.832917 2.500000 -0.09844051 0.17050396 0.98042739 2.5 0 0 0
3388 1 174.687500 58.997981 2.500000 0.09262434 0.16043006 0.98269167 2.5 0 0 0
3389 1 175.937500 61.163044 2.500000 0.19688101 -0.00000000 0.98042739 2.5 0 0 0
3390 1 177.187500 63.328108 2.500000 0.18242270 -0.31596539 0.93106811 2.5 0 0 0
3391 1 178.437500 65.493171 2.500000 0.00000000 -0.67328065 0.73938702 2.5 0 0 0
3392 1 179.687500 67.658235 2.500000 -0.25210197 -0.82720813 0.50216662 2.5 0 0 0
3393 1 180.937500 69.823298 2.500000 -0.45612652 -0.79003431 0.40962714 2.5 0 0 0
3394 1 182.187500 71.988362 2.500000 -0.59033226 -0.63193078 0.50216662 2.5 0 0 0
3395 1 183.437500 74.153425 2.500000 -0.58307814 -0.33664032 0.73938702 2.5 0 0 0
3396 1 184.687500 76.318489 2.500000 -0.36484540 -0.00000000 0.93106811 2.5 0 0 0
3397 1 185.937500 78.483552 2.500000 -0.09844051 0.17050396 0.98042739 2.5 0 0 0
3398 1 187.187500 80.648616 2.500000 0.09262434 0.16043006 0.98269167 2.5 0 0 0
3399 1 188.437500 82.813679 2.500000 0.19688101 -0.00000000 0.98042739 2.5 0 0 0
3400 1 189.687500 84.978743 2.500000 0.18242270 -0.31596539 0.93106811 2.5 0 0 0
3401 1 190.937500 87.143806 2.500000 0.00000000 -0.67328065 0.73938702 2.5 0 0 0
3402 1 192.187500 89.308870 2.500000 -0.25210197 -0.82720813 0.50216662 2.5 0 0 0
3403 1 193.437500 91.473933 2.500000 -0.45612652 -0.79003431 0.40962714 2.5 0 0 0
3404 1 194.687500 93.638997 2.500000 -0.59033226 -0.63193078 0.50216662 2.5 0 0 0
3405 1 195.937500 95.804060 2.500000 -0.58307814 -0.33664032 0.73938702 2.5 0 0 0
3406 1 197.187500 97.969124 2.500000 -0.36484540 0.00000000 0.93106811 2.5 0 0 0
3407 1 198.437500 100.134187 2.500000 -0.09844051 0.17050396 0.98042739 2.5 0 0 0
3408 1 199.687500 102.299251 2.500000 0.09262434 0.16043006 0.98269167 2.5 0 0 0
3409 1 200.937500 104.464314 2.500000 0.19688101 -0.00000000 0.98042739 2.5 0 0 0
3410 1 202.187500 106.629378 2.500000 0.18242270 -0.31596539 0.93106811 2.5 0 0 0
3411 1 203.437500 108.794441 2.500000 0.00000000 -0.67328065 0.73938702 2.5 0 0 0
3412 1 204.687500 110.959505 2.500000 -0.25210197 -0.82720813 0.50216662 2.5 0 0 0
3413 1 205.937500 113.124568 2.500000 -0.45612652 -0.79003431 0.40962714 2.5 0 0 0
3414 1 207.187500 115.289632 2.500000 -0.59033226 -0.63193078 0.50216662 2.5 0 0 0
3415 1 208.437500 117.454695 2.500000 -0.58307814 -0.33664032 0.73938702 2.5 0 0 0
3416 1 209.687500 119.619759 2.500000 -0.36484540 0.00000000 0.93106811 2.5 0 0 0
3417 1 210.937500 121.784822 2.500000 -0.09844051 0.17050396 0.98042739 2.5 0 0 0
3418 1 212.187500 123.949886 2.500000 0.09262434 0.16043006 0.98269167 2.5 0 0 0
3419 1 213.437500 126.114949 2.500000 0.19688101 -0.00000000 0.98042739 2.5 0 0 0
3420 1 214.687500 128.280013 2.500000 0.18242270 -0.31596539 0.93106811 2.5 0 0 0
3421 1 143.437500 0.541266 2.500000 0.00000000 -0.99744270 0.07147071 2.5 0 0 0
3422 1 144.687500 2.706329 2.500000 -0.33094272 -0.92747263 -0.17398689 2.5 0 0 0
3423 1 145.937500 4.871393 2.500000 -0.63774350 -0.75034112 -0.17398689 2.5 0 0 0
3424 1 147.187500 7.036456 2.500000 -0.86381072 -0.49872135 0.07147071 2.5 0 0 0
3425 1 148.437500 9.201520 2.500000 -0.84243424 -0.19527735 0.50216662 2.5 0 0 0
3426 1 149.687500 11.366583 2.500000 -0.53547657 0.00000000 0.84455008 2.5 0 0 0
3427 1 150.937500 13.531647 2.500000 -0.18524868 0.00000000 0.98269167 2.5 0 0 0
3428 1 152.187500 15.696710 2.500000 0.09262434 -0.16043006 0.98269167 2.5 0 0 0
3429 1 153.437500 17.861774 2.500000 0.26773829 -0.46373631 0.84455008 2.5 0 0 0
3430 1 154.687500 20.026837 2.500000 0.25210197 -0.82720813 0.50216662 2.5 0 0 0
3431 1 155.937500 22.191901 2.500000 -0.00000000 -0.99744270 0.07147071 2.5 0 0 0
3432 1 157.187500 24.356964 2.500000 -0.33094272 -0.92747263 -0.17398689 2.5 0 0 0
3433 1 158.437500 26.522028 2.500000 -0.63774350 -0.75034112 -0.17398689 2.5 0 0 0
3434 1 159.687500 28.687092 2.500000 -0.86381072 -0.49872135 0.07147071 2.5 0 0 0
3435 1 160.937500 30.852155 2.500000 -0.84243424 -0.19527735 0.50216662 2.5 0 0 0
3436 1 162.187500 33.017219 2.500000 -0.53547657 -0.00000000 0.84455008 2.5 0 0 0
3437 1 163.437500 35.182282 2.500000 -0.18524868 -0.00000000 0.98269167 2.5 0 0 0
3438 1 164.687500 37.347346 2.500000 0.09262434 -0.16043006 0.98269167 2.5 0 0 0
3439 1 165.937500 39.512409 2.500000 0.26773829 -0.46373631 0.84455008 2.5 0 0 0
3440 1 167.187500 41.677473 2.500000 0.25210197 -0.82720813 0.50216662 2.5 0 0 0
3441 1 168.437500 43.842536 2.500000 0.00000000 -0.99744270 0.07147071 2.5 0 0 0
3442 1 169.687500 46.007600 2.500000 -0.33094272 -0.92747263 -0.17398689 2.5 0 0 0
3443 1 170.937500 48.172663 2.500000 -0.63774350 -0.75034112 -0.17398689 2.5 0 0 0
3444 1 172.187500 50.337727 2.500000 -0.86381072 -0.49872135 0.07147071 2.5 0 0 0
3445 1 173.437500 52.502790 2.500000 -0.84243424 -0.19527735 0.50216662 2.5 0 0 0
3446 1 174.687500 54.667854 2.500000 -0.53547657 0.00000000 0.84455008 2.5 0 0 0
3447 1 175.937500 56.832917 2.500000 -0.18524868 -0.00000000 0.98269167 2.5 0 0 0
3448 1 177.187500 58.997981 2.500000 0.09262434 -0.16043006 0.98269167 2.5 0 0 0
3449 1 178.437500 61.163044 2.500000 0.26773829 -0.46373631 0.84455008 2.5 0 0 0
3450 1 179.687500 63.328108 2.500000 0.25210197 -0.82720813 0.50216662 2.5 0 0 0
3451 1 180.937500 65.493171 2.500000 0.00000000 -0.99744270 0.07147071 2.5 0 0 0
3452 1 182.187500 67.658235 2.500000 -0.33094272 -0.92747263 -0.17398689 2.5 0 0 0
3453 1 183.437500 69.823298 2.500000 -0.63774350 -0.75034112 -0.17398689 2.5 0 0 0
3454 1 184.687500 71.988362 2.500000 -0.86381072 -0.49872135 0.07147071 2.5 0 0 0
3455 1 185.937500 74.153425 2.500000 -0.84243424 -0.19527735 0.50216662 2.5 0 0 0
3456 1 187.187500 76.318489 2.500000 -0.53547657 -0.00000000 0.84455008 2.5 0 0 0
3457 1 188.437500 78.483552 2.500000 -0.18524868 -0.00000000 0.98269167 2.5 0 0 0
3458 1 189.687500 80.648616 2.500000 0.09262434 -0.16043006 0.98269167 2.5 0 0 0
3459 1 190.937500 82.813679 2.500000 0.26773829 -0.46373631 0.84455008 2.5 0 0 0
3460 1 192.187500 84.978743 2.500000 0.25210197 -0.82720813 0.50216662 2.5 0 0 0
3461 1 193.437500 87.143806 2.500000 0.00000000 -0.99744270 0.07147071 2.5 0 0 0
3462 1 194.687500 89.308870 2.500000 -0.33094272 -0.92747263 -0.17398689 2.5 0 0 0
3463 1 195.937500 91.473933 2.500000 -0.63774350 -0.75034112 -0.17398689 2.5 0 0 0
3464 1 197.187500 93.638997 2.500000 -0.86381072 -0.49872135 0.07147071 2.5 0 0 0
3465 1 198.437500 95.804060 2.500000 -0.84243424 -0.19527735 0.50216662 2.5 0 0 0
3466 1 199.687500 97.969124 2.500000 -0.53547657 0.00000000 0.84455008 2.5 0 0 0
3467 1 200.937500 100.134187 2.500000 -0.18524868 -0.00000000 0.98269167 2.5 0 0 0
3468 1 202.187500 102.299251 2.500000 0.09262434 -0.16043006 0.98269167 2.5 0 0 0
3469 1 203.437500 104.464314 2.500000 0.26773829 -0.46373631 0.84455008 2.5 0 0 0
3470 1 204.687500 106.629378 2.500000 0.25210197 -0.82720813 0.50216662 2.5 0 0 0
3471 1 205.937500 108.794441 2.500000 -0.00000000 -0.99744270 0.07147071 2.5 0 0 0
3472 1 207.187500 110.959505 2.500000 -0.33094272 -0.92747263 -0.17398689 2.5 0 0 0
3473 1 208.437500 113.124568 2.500000 -0.63774350 -0.75034112 -0.17398689 2.5 0 0 0
3474 1 209.687500 115.289632 2.500000 -0.86381072 -0.49872135 0.07147071 2.5 0 0 0
3475 1 210.937500 117.454695 2.500000 -0.84243424 -0.19527735 0.50216662 2.5 0 0 0
3476 1 212.187500 119.619759 2.500000 -0.53547657 -0.00000000 0.84455008 2.5 0 0 0
3477 1 213.437500 121.784822 2.500000 -0.18524868 -0.00000000 0.98269167 2.5 0 0 0
3478 1 214.687500 123.949886 2.500000 0.09262434 -0.16043006 0.98269167 2.5 0 0 0
3479 1 215.937500 126.114949 2.500000 0.26773829 -0.46373631 0.84455008 2.5 0 0 0
3480 1 217.187500 128.280013 2.500000 0.25210197 -0.82720813 0.50216662 2.5 0 0 0
3481 1 145.937500 0.541266 2.500000 0.00000000 -0.82742021 -0.56158329 2.5 0 0 0
3482 1 147.187500 2.706329 2.500000 -0.36661923 -0.63500314 -0.67997158 2.5 0 0 0
3483 1 148.437500 4.871393 2.500000 -0.71656692 -0.41371011 -0.56158329 2.5 0 0 0
3484 1 149.687500 7.036456 2.500000 -0.96868622 -0.17713151 -0.17398689 2.5 0 0 0
3485 1 150.937500 9.201520 2.500000 -0.91225304 -0.00000000 0.40962714 2.5 0 0 0
3486 1 152.187500 11.366583 2.500000 -0.53547657 -0.00000000 0.84455008 2.5 0 0 0
3487 1 153.437500 13.531647 2.500000 -0.09844051 -0.17050396 0.98042739 2.5 0 0 0
3488 1 154.687500 15.696710 2.500000 0.26773829 -0.46373631 0.84455008 2.5 0 0 0
3489 1 155.937500 17.861774 2.500000 0.45612652 -0.79003431 0.40962714 2.5 0 0 0
3490 1 157.187500 20.026837 2.500000 0.33094272 -0.92747263 -0.17398689 2.5 0 0 0
3491 1 158.437500 22.191901 2.500000 0.00000000 -0.82742021 -0.56158329 2.5 0 0 0
3492 1 159.687500 24.356964 2.500000 -0.36661923 -0.63500314 -0.67997158 2.5 0 0 0
3493 1 160.937500 26.522028 2.500000 -0.71656692 -0.41371011 -0.56158329 2.5 0 0 0
3494 1 162.187500 28.687092 2.500000 -0.96868622 -0.17713151 -0.17398689 2.5 0 0 0
3495 1 163.437500 30.852155 2.500000 -0.91225304 0.00000000 0.40962714 2.5 0 0 0
3496 1 164.687500 33.017219 2.500000 -0.53547657 0.00000000 0.84455008 2.5 0 0 0
3497 1 165.937500 35.182282 2.500000 -0.09844051 -0.17050396 0.98042739 2.5 0 0 0
3498 1 167.187500 37.347346 2.500000 0.26773829 -0.46373631 0.84455008 2.5 0 0 0
3499 1 168.437500 39.512409 2.500000 0.45612652 -0.79003431 0.40962714 2.5 0 0 0
3500 1 169.687500 41.677473 2.500000 0.33094272 -0.92747263 -0.17398689 2.5 0 0 0
3501 1 170.937500 43.842536 2.500000 0.00000000 -0.82742021 -0.56158329 2.5 0 0 0
3502 1 172.187500 46.007600 2.500000 -0.36661923 -0.63500314 -0.67997158 2.5 0 0 0
3503 1 173.437500 48.172663 2.500000 -0.71656692 -0.41371011 -0.56158329 2.5 0 0 0
3504 1 174.687500 50.337727 2.500000 -0.96868622 -0.17713151 -0.17398689 2.5 0 0 0
3505 1 175.937500 52.502790 2.500000 -0.91225304 0.00000000 0.40962714 2.5 0 0 0
3506 1 177.187500 54.667854 2.500000 -0.53547657 -0.00000000 0.84455008 2.5 0 0 0
3507 1 178.437500 56.832917 2.500000 -0.09844051 -0.17050396 0.98042739 2.5 0 0 0
3508 1 179.687500 58.997981 2.500000 0.26773829 -0.46373631 0.84455008 2.5 0 0 0
3509 1 180.937500 61.163044 2.500000 0.45612652 -0.79003431 0.40962714 2.5 0 0 0
3510 1 182.187500 63.328108 2.500000 0.33094272 -0.92747263 -0.17398689 2.5 0 0 0
3511 1 183.437500 65.493171 2.500000 0.00000000 -0.82742021 -0.56158329 2.5 0 0 0
3512 1 184.687500 67.658235 2.500000 -0.36661923 -0.63500314 -0.67997158 2.5 0 0 0
3513 1 185.937500 69.823298 2.500000 -0.71656692 -0.41371011 -0.56158329 2.5 0 0 0
3514 1 187.187500 71.988362 2.500000 -0.96868622 -0.17713151 -0.17398689 2.5 0 0 0
3515 1 188.437500 74.153425 2.500000 -0.91225304 0.00000000 0.40962714 2.5 0 0 0
3516 1 189.687500 76.318489 2.500000 -0.53547657 0.00000000 0.84455008 2.5 0 0 0
3517 1 190.937500 78.483552 2.500000 -0.09844051 -0.17050396 0.98042739 2.5 0 0 0
3518 1 192.187500 80.648616 2.500000 0.26773829 -0.46373631 0.84455008 2.5 0 0 0
3519 1 193.437500 82.813679 2.500000 0.45612652 -0.79003431 0.40962714 2.5 0 0 0
3520 1 194.687500 84.978743 2.500000 0.33094272 -0.92747263 -0.17398689 2.5 0 0 0
3521 1 195.937500 87.143806 2.500000 0.00000000 -0.82742021 -0.56158329 2.5 0 0 0
3522 1 197.187500 89.308870 2.500000 -0.36661923 -0.63500314 -0.67997158 2.5 0 0 0
3523 1 198.437500 91.473933 2.500000 -0.71656692 -0.41371011 -0.56158329 2.5 0 0 0
3524 1 199.687500 93.638997 2.500000 -0.96868622 -0.17713151 -0.17398689 2.5 0 0 0
3525 1 200.937500 95.804060 2.500000 -0.91225304 0.00000000 0.40962714 2.5 0 0 0
3526 1 202.187500 97.969124 2.500000 -0.53547657 0.00000000 0.84455008 2.5 0 0 0
3527 1 203.437500 100.134187 2.500000 -0.09844051 -0.17050396 0.98042739 2.5 0 0 0
3528 1 204.687500 102.299251 2.500000 0.26773829 -0.46373631 0.84455008 2.5 0 0 0
3529 1 205.937500 104.464314 2.500000 0.45612652 -0.79003431 0.40962714 2.5 0 0 0
3530 1 207.187500 106.629378 2.500000 0.33094272 -0.92747263 -0.17398689 2.5 0 0 0
3531 1 208.437500 108.794441 2.500000 -0.00000000 -0.82742021 -0.56158329 2.5 0 0 0
3532 1 209.687500 110.959505 2.500000 -0.36661923 -0.63500314 -0.67997158 2.5 0 0 0
3533 1 210.937500 113.124568 2.500000 -0.71656692 -0.41371011 -0.56158329 2.5 0 0 0
3534 1 212.187500 115.289632 2.500000 -0.96868622 -0.17713151 -0.17398689 2.5 0 0 0
3535 1 213.437500 117.454695 2.500000 -0.91225304 0.00000000 0.40962714 2.5 0 0 0
3536 1 214.687500 119.619759 2.500000 -0.53547657 0.00000000 0.84455008 2.5 0 0 0
3537 1 215.937500 121.784822 2.500000 -0.09844051 -0.17050396 0.98042739 2.5 0 0 0
3538 1 217.187500 123.949886 2.500000 0.26773829 -0.46373631 0.84455008 2.5 0 0 0
3539 1 218.437500 126.114949 2.500000 0.45612652 -0.79003431 0.40962714 2.5 0 0 0
3540 1 219.687500 128.280013 2.500000 0.33094272 -0.92747263 -0.17398689 2.5 0 0 0
3541 1 148.437500 0.541266 2.500000 0.00000000 -0.43322128 -0.90128759 2.5 0 0 0
3542 1 149.687500 2.706329 2.500000 -0.37518063 -0.21661064 -0.90128759 2.5 0 0 0
3543 1 150.937500 4.871393 2.500000 -0.73323847 -0.00000000 -0.67997158 2.5 0 0 0
3544 1 152.187500 7.036456 2.500000 -0.96868622 0.17713151 -0.17398689 2.5 0 0 0
3545 1 153.437500 9.201520 2.500000 -0.84243424 0.19527735 0.50216662 2.5 0 0 0
3546 1 154.687500 11.366583 2.500000 -0.36484540 -0.00000000 0.93106811 2.5 0 0 0
3547 1 155.937500 13.531647 2.500000 0.18242270 -0.31596539 0.93106811 2.5 0 0 0
3548 1 157.187500 15.696710 2.500000 0.59033226 -0.63193078 0.50216662 2.5 0 0 0
3549 1 158.437500 17.861774 2.500000 0.63774350 -0.75034112 -0.17398689 2.5 0 0 0
3550 1 159.687500 20.026837 2.500000 0.36661923 -0.63500314 -0.67997158 2.5 0 0 0
3551 1 160.937500 22.191901 2.500000 -0.00000000 -0.43322128 -0.90128759 2.5 0 0 0
3552 1 162.187500 24.356964 2.500000 -0.37518063 -0.21661064 -0.90128759 2.5 0 0 0
3553 1 163.437500 26.522028 2.500000 -0.73323847 0.00000000 -0.67997158 2.5 0 0 0
3554 1 164.687500 28.687092 2.500000 -0.96868622 0.17713151 -0.17398689 2.5 0 0 0
3555 1 165.937500 30.852155 2.500000 -0.84243424 0.19527735 0.50216662 2.5 0 0 0
3556 1 167.187500 33.017219 2.500000 -0.36484540 0.00000000 0.93106811 2.5 0 0 0
3557 1 168.437500 35.182282 2.500000 0.18242270 -0.31596539 0.93106811 2.5 0 0 0
3558 1 169.687500 37.347346 2.500000 0.59033226 -0.63193078 0.50216662 2.5 0 0 0
3559 1 170.937500 39.512409 2.500000 0.63774350 -0.75034112 -0.17398689 2.5 0 0 0
3560 1 172.187500 41.677473 2.500000 0.36661923 -0.63500314 -0.67997158 2.5 0 0 0
3561 1 173.437500 43.842536 2.500000 0.00000000 -0.43322128 -0.90128759 2.5 0 0 0
3562 1 174.687500 46.007600 2.500000 -0.37518063 -0.21661064 -0.90128759 2.5 0 0 0
3563 1 175.937500 48.172663 2.500000 -0.73323847 0.00000000 -0.67997158 2.5 0 0 0
3564 1 177.187500 50.337727 2.500000 -0.96868622 0.17713151 -0.17398689 2.5 0 0 0
3565 1 178.437500 52.502790 2.500000 -0.84243424 0.19527735 0.50216662 2.5 0 0 0
3566 1 179.687500 54.667854 2.500000 -0.36484540 -0.00000000 0.93106811 2.5 0 0 0
3567 1 180.937500 56.832917 2.500000 0.18242270 -0.31596539 0.93106811 2.5 0 0 0
3568 1 182.187500 58.997981 2.500000 0.59033226 -0.63193078 0.50216662 2.5 0 0 0
3569 1 183.437500 61.163044 2.500000 0.63774350 -0.75034112 -0.17398689 2.5 0 0 0
3570 1 184.687500 63.328108 2.500000 0.36661923 -0.63500314 -0.67997158 2.5 0 0 0
3571 1 185.937500 65.493171 2.500000 0.00000000 -0.43322128 -0.90128759 2.5 0 0 0
3572 1 187.187500 67.658235 2.500000 -0.37518063 -0.21661064 -0.90128759 2.5 0 0 0
3573 1 188.437500 69.823298 2.500000 -0.73323847 0.00000000 -0.67997158 2.5 0 0 0
3574 1 189.687500 71.988362 2.500000 -0.96868622 0.17713151 -0.17398689 2.5 0 0 0
3575 1 190.937500 74.153425 2.500000 -0.84243424 0.19527735 0.50216662 2.5 0 0 0
3576 1 192.187500 76.318489 2.500000 -0.36484540 0.00000000 0.93106811 2.5 0 0 0
3577 1 193.437500 78.483552 2.500000 0.18242270 -0.31596539 0.93106811 2.5 0 0 0
3578 1 194.687500 80.648616 2.500000 0.59033226 -0.63193078 0.50216662 2.5 0 0 0
3579 1 195.937500 82.813679 2.500000 0.63774350 -0.75034112 -0.17398689 2.5 0 0 0
3580 1 197.187500 84.978743 2.500000 0.36661923 -0.63500314 -0.67997158 2.5 0 0 0
3581 1 198.437500 87.143806 2.500000 0.00000000 -0.43322128 -0.90128759 2.5 0 0 0
3582 1 199.687500 89.308870 2.500000 -0.37518063 -0.21661064 -0.90128759 2.5 0 0 0
3583 1 200.937500 91.473933 2.500000 -0.73323847 0.00000000 -0.67997158 2.5 0 0 0
3584 1 202.187500 93.638997 2.500000 -0.96868622 0.17713151 -0.17398689 2.5 0 0 0
3585 1 203.437500 95.804060 2.500000 -0.84243424 0.19527735 0.50216662 2.5 0 0 0
3586 1 204.687500 97.969124 2.500000 -0.36484540 0.00000000 0.93106811 2.5 0 0 0
3587 1 205.937500 100.134187 2.500000 0.18242270 -0.31596539 0.93106811 2.5 0 0 0
3588 1 207.187500 102.299251 2.500000 0.59033226 -0.63193078 0.50216662 2.5 0 0 0
3589 1 208.437500 104.464314 2.500000 0.63774350 -0.75034112 -0.17398689 2.5 0 0 0
3590 1 209.687500 106.629378 2.500000 0.36661923 -0.63500314 -0.67997158 2.5 0 0 0
3591 1 210.937500 108.794441 2.500000 -0.00000000 -0.43322128 -0.90128759 2.5 0 0 0
3592 1 212.187500 110.959505 2.500000 -0.37518063 -0.21661064 -0.90128759 2.5 0 0 0
3593 1 213.437500 113.124568 2.500000 -0.73323847 -0.00000000 -0.67997158 2.5 0 0 0
3594 1 214.687500 115.289632 2.500000 -0.96868622 0.17713151 -0.17398689 2.5 0 0 0
3595 1 215.937500 117.454695 2.500000 -0.84243424 0.19527735 0.50216662 2.5 0 0 0
3596 1 217.187500 119.619759 2.500000 -0.36484540 -0.00000000 0.93106811 2.5 0 0 0
3597 1 218.437500 121.784822 2.500000 0.18242270 -0.31596539 0.93106811 2.5 0 0 0
3598 1 219.687500 123.949886 2.500000 0.59033226 -0.63193078 0.50216662 2.5 0 0 0
3599 1 220.937500 126.114949 2.500000 0.63774350 -0.75034112 -0.17398689 2.5 0 0 0
3600 1 222.187500 128.280013 2.500000 0.36661923 -0.63500314 -0.67997158 2.5 0 0 0
